$molecule
0    1
   Bi      0.00000000      0.00000000     -1.78837880
    H     -0.71598366     -1.24012008     -2.82446275
    H     -0.71598366      1.24012008     -2.82446275
    H      1.43196732      0.00000000     -2.82446275
    N      0.00000000      0.00000000      2.28026868
    H     -0.93568113      0.00000000      2.66065852
    H      0.46784057     -0.81032363      2.66065852
    H      0.46784057      0.81032363      2.66065852
$end
   
$rem
mem_static = 200
mem_total  = 7500
exchange = b3lyp
basis = G3Large
max_scf_cycles = 50
scf_convergence = 7
symmetry = false
xc_grid = 000075000302
$end
