$molecule
0    1
   Bi      0.00000000      0.00000000     -0.99993044
    H     -0.71818107     -1.24392610     -2.02117970
    H     -0.71818107      1.24392610     -2.02117970
    H      1.43636214      0.00000000     -2.02117970
   Cl      0.00000000      0.00000000      2.89558755
    H      0.00000000      0.00000000      4.16835935
$end
   
$rem
mem_static = 200
mem_total  = 7500
exchange = b3lyp
basis = G3Large
max_scf_cycles = 50
scf_convergence = 7
symmetry = false
xc_grid = 000075000302
$end
