$molecule
0    1
   Bi      0.81220839      1.58085642      0.00000000
    H      0.24612377      2.69732371      1.24292687
    H      0.24612377      2.69732371     -1.24292687
    H     -0.76779810      0.79544039      0.00000000
    H      0.12829075     -3.55424224      0.00000000
    S      0.32147630     -2.23508280      0.00000000
    H     -0.98642488     -1.98161916      0.00000000
$end
   
$rem
mem_static = 200
mem_total  = 7500
exchange = b3lyp
basis = G3Large
max_scf_cycles = 50
scf_convergence = 7
symmetry = false
xc_grid = 000075000302
$end
