$molecule
0    1
   Pb      1.45480320      1.10892538      0.00000000
    H      1.47889651      2.11593934      1.40038474
    H      2.87767893      0.13386588      0.00000000
    H      0.05309305      0.11740955      0.00000000
    H      1.47889651      2.11593934     -1.40038474
    O     -2.12663244     -1.63842414      0.00000000
    H     -3.04305362     -1.35800806      0.00000000
    H     -2.17368215     -2.59564728      0.00000000
$end
   
$rem
mem_static = 200
mem_total  = 7500
exchange = b3lyp
basis = G3Large
max_scf_cycles = 50
scf_convergence = 7
symmetry = false
xc_grid = 000075000302
$end
