$molecule
0    1
   Pb      0.00000000      0.00000000     -1.38446718
    H      0.00000000     -1.40251743     -0.38348293
    H      0.00000000      1.40251743     -0.38348293
    H      1.40666485      0.00000000     -2.37801445
    H     -1.40666485      0.00000000     -2.37801445
    H      0.00000000      0.00000000      4.16111331
   Br      0.00000000      0.00000000      2.74634864
$end
   
$rem
mem_static = 200
mem_total  = 7500
exchange = b3lyp
basis = G3Large
max_scf_cycles = 50
scf_convergence = 7
symmetry = false
xc_grid = 000075000302
$end
