$molecule
0    1
   Pb      0.00000000      0.00000000     -2.63536487
    H      0.81219175     -1.40675738     -3.20836324
    H      0.81219175      1.40675738     -3.20836324
    H     -1.62438350      0.00000000     -3.20836324
    H      0.00000000      0.00000000     -0.91105765
   Bi      0.00000000      0.00000000      2.52611176
    H      1.43618936      0.00000000      3.54896943
    H     -0.71809468      1.24377647      3.54896943
    H     -0.71809468     -1.24377647      3.54896943
$end
   
$rem
mem_static = 200
mem_total  = 7500
exchange = b3lyp
basis = G3Large
max_scf_cycles = 50
scf_convergence = 7
symmetry = false
xc_grid = 000075000302
$end
