$molecule
0    1
   Pb     -0.00279147     -2.15147546      0.00000000
    H     -0.05572387     -0.42898525      0.00000000
    H     -0.79607432     -2.75017053      1.40685646
    H     -0.79607432     -2.75017053     -1.40685646
    H      1.63919672     -2.67243970      0.00000000
   Te      0.01106703      2.81320155      0.00000000
    H      1.15465625      3.98092424      0.00000000
    H     -1.15425603      3.95911568      0.00000000
$end
   
$rem
mem_static = 200
mem_total  = 7500
exchange = b3lyp
basis = G3Large
max_scf_cycles = 50
scf_convergence = 7
symmetry = false
xc_grid = 000075000302
$end
