$molecule
0    1
   Pb      0.00000000      0.00000000     -2.23269951
    H     -0.99263594      0.99263594     -1.23375994
    H      0.99263594     -0.99263594     -1.23375994
    H     -0.99448943     -0.99448943     -3.22828876
    H      0.99448943      0.99448943     -3.22828876
   Pb      0.00000000      0.00000000      2.23269951
    H     -0.99448943      0.99448943      3.22828876
    H      0.99448943     -0.99448943      3.22828876
    H     -0.99263594     -0.99263594      1.23375994
    H      0.99263594      0.99263594      1.23375994
$end
   
$rem
mem_static = 200
mem_total  = 7500
exchange = b3lyp
basis = G3Large
max_scf_cycles = 50
scf_convergence = 7
symmetry = false
xc_grid = 000075000302
$end
