$molecule
0    1
   Sb     -0.03970771     -1.34509539      0.00000000
    H      0.69828892     -2.24988663      1.20798226
    H      0.69828892     -2.24988663     -1.20798226
    H     -1.39193773     -2.34188017      0.00000000
    H      0.80055467      3.35842551      0.00000000
    S     -0.50046017      3.07120358      0.00000000
    H     -0.26502690      1.75711974      0.00000000
$end
   
$rem
mem_static = 200
mem_total  = 7500
exchange = b3lyp
basis = G3Large
max_scf_cycles = 50
scf_convergence = 7
symmetry = false
xc_grid = 000075000302
$end
