$molecule
0    1
   Sb     -0.04344427     -1.16929163      0.00000000
    H      0.71456304     -2.04845588      1.21137393
    H      0.71456304     -2.04845588     -1.21137393
    H     -1.37647973     -2.18977721      0.00000000
    O      0.35810887      2.63898053      0.00000000
    H      0.11078631      1.71030402      0.00000000
    H     -0.47809727      3.10669605      0.00000000
$end
   
$rem
mem_static = 200
mem_total  = 7500
exchange = b3lyp
basis = G3Large
max_scf_cycles = 50
scf_convergence = 7
symmetry = false
xc_grid = 000075000302
$end
