$molecule
0    1
   Sb      0.00000000      0.00000000     -0.70962590
    H     -0.69522106     -1.20415820      0.23654710
    H     -0.69522106      1.20415820      0.23654710
    H      1.39044212      0.00000000      0.23654710
$end
   
$rem
mem_static = 200
mem_total  = 7500
exchange = b3lyp
basis = G3Large
max_scf_cycles = 50
scf_convergence = 7
symmetry = false
xc_grid = 000075000302
$end
