$molecule
0    1
   Sb      0.79724423     -1.53199041      0.00000000
    H     -0.34592572     -1.31945803      1.21267796
    H      0.52847381     -3.20569417      0.00000000
    H     -0.34592572     -1.31945803     -1.21267796
    N     -0.06084352      1.57804208      0.00000000
    H     -0.63118707      1.77188009      0.81122623
    H      0.68935107      2.25479837      0.00000000
    H     -0.63118707      1.77188009     -0.81122623
$end
   
$rem
mem_static = 200
mem_total  = 7500
exchange = b3lyp
basis = G3Large
max_scf_cycles = 50
scf_convergence = 7
symmetry = false
xc_grid = 000075000302
$end
