$molecule
0    1
   Te      0.00000000      0.00000000     -0.76954914
    H      1.15536575      0.00000000      0.38477457
    H     -1.15536575      0.00000000      0.38477457
$end
   
$rem
mem_static = 200
mem_total  = 7500
exchange = b3lyp
basis = G3Large
max_scf_cycles = 50
scf_convergence = 7
symmetry = false
xc_grid = 000075000302
$end
