$molecule
0    1
   Te      0.00000000      0.00000000     -1.97516896
    H     -1.15322072      0.00000000     -3.13323112
    H      1.15322072      0.00000000     -3.13323112
    H      0.96025447      0.00000000      3.05516920
    S      0.00000000      0.00000000      2.13129280
    H     -0.96025447      0.00000000      3.05516920
$end
   
$rem
mem_static = 200
mem_total  = 7500
exchange = b3lyp
basis = G3Large
max_scf_cycles = 50
scf_convergence = 7
symmetry = false
xc_grid = 000075000302
$end
