$molecule
0    1
   Te      0.79137921      2.94716124      0.00000000
    H      0.52923540      1.33413664      0.00000000
    H     -0.82127503      3.20662086      0.00000000
   Te     -0.11273045     -1.72956468      0.00000000
    H      0.96129490     -2.96011043      0.00000000
    H     -1.34790404     -2.79824363      0.00000000
$end
   
$rem
mem_static = 200
mem_total  = 7500
exchange = b3lyp
basis = G3Large
max_scf_cycles = 50
scf_convergence = 7
symmetry = false
xc_grid = 000075000302
$end
