$molecule
0    1
   Te     -1.10622462     -0.59221194      0.00000000
    H     -1.20525021      1.03639093      0.00000000
    H     -2.73737932     -0.70362581      0.00000000
    H      2.68255536     -0.48643775      0.00000000
   Cl      2.36629881      0.74588457      0.00000000
$end
   
$rem
mem_static = 200
mem_total  = 7500
exchange = b3lyp
basis = G3Large
max_scf_cycles = 50
scf_convergence = 7
symmetry = false
xc_grid = 000075000302
$end
