$molecule
0    1
   Te      0.00000000      0.00000000     -1.62022385
    H     -1.14729177      0.00000000     -2.78676401
    H      1.14729177      0.00000000     -2.78676401
    O      0.00000000      0.00000000      2.00527788
    H     -0.75610234      0.00000000      2.59423699
    H      0.75610234      0.00000000      2.59423699
$end
   
$rem
mem_static = 200
mem_total  = 7500
exchange = b3lyp
basis = G3Large
max_scf_cycles = 50
scf_convergence = 7
symmetry = false
xc_grid = 000075000302
$end
