$molecule
0    1
    N     -1.57871845     -0.04661101      0.00000000
    @N      1.57871845      0.04661101      0.00000000
    H     -2.15862158      0.13639604      0.80956523
    H     -0.84947124      0.65819316      0.00000000
    H     -2.15862158      0.13639604     -0.80956523
    @H      2.15862158     -0.13639604     -0.80956523
    @H      0.84947124     -0.65819316      0.00000000
    @H      2.15862158     -0.13639604      0.80956523
$end
   
$rem
mem_static = 200
mem_total  = 7500
exchange = b3lyp
basis = G3Large
max_scf_cycles = 50
scf_convergence = 7
symmetry = false
xc_grid = 000075000302
$end
