$molecule
0    1
    C      0.00000000      0.00000000     -1.85916154
    @C      0.00000000      0.00000000      1.85916154
    H      0.88862133     -0.51304576     -1.49459314
    H      0.00000000      1.02609153     -1.49459314
    H      0.00000000      0.00000000     -2.94828472
    H     -0.88862133     -0.51304576     -1.49459314
    @H      0.00000000      0.00000000      2.94828472
    @H     -0.88862133      0.51304576      1.49459314
    @H      0.88862133      0.51304576      1.49459314
    @H      0.00000000     -1.02609153      1.49459314
$end
   
$rem
mem_static = 200
mem_total  = 7500
exchange = b3lyp
basis = G3Large
max_scf_cycles = 50
scf_convergence = 7
symmetry = false
xc_grid = 000075000302
$end
