$molecule
0    1
    @C      1.39321820      0.03629132     -1.09376784
    @C      0.72803659     -1.18840182     -1.09378923
    @C     -0.66517989     -1.22470801     -1.09376784
    @C     -1.39320447     -0.03629727     -1.09378923
    @C     -0.72803831      1.18841669     -1.09376784
    @C      0.66516787      1.22469910     -1.09378923
    C      0.00000000      0.00000000      2.62213304
    @H      1.29295913     -2.11054147     -1.09222761
    @H     -1.18132318     -2.17500873     -1.09221154
    @H     -2.47426209     -0.06446472     -1.09222761
    @H     -1.29295122      2.11056025     -1.09221154
    @H      1.18130297      2.17500618     -1.09222761
    @H      2.47427440      0.06444848     -1.09221154
    H      0.58687773      0.83817445      2.98589090
    H     -1.01931923      0.08916380      2.98589090
    H      0.00000000      0.00000000      1.53618291
    H      0.43244150     -0.92733825      2.98589090
$end
   
$rem
mem_static = 200
mem_total  = 7500
exchange = b3lyp
basis = G3Large
max_scf_cycles = 50
scf_convergence = 7
symmetry = false
xc_grid = 000075000302
$end
