$molecule
0    1
    C     -1.88889652     -0.17969205      0.00000000
    C      1.88889652      0.17969205      0.00000000
    O     -1.17043534     -1.16659032      0.00000000
    O     -1.49328044      1.07368935      0.00000000
    O      1.49328044     -1.07368935      0.00000000
    O      1.17043534      1.16659032      0.00000000
    H     -0.49883313      1.10719530      0.00000000
    H     -2.97948880     -0.25882908      0.00000000
    H      2.97948880      0.25882908      0.00000000
    H      0.49883313     -1.10719530      0.00000000
$end
   
$rem
mem_static = 200
mem_total  = 7500
exchange = b3lyp
basis = G3Large
max_scf_cycles = 50
scf_convergence = 7
symmetry = false
xc_grid = 000075000302
$end
