$molecule
0    1
    C     -2.01864959      0.05288301      0.00000000
    C      2.01864959     -0.05288301      0.00000000
    N     -1.40777039     -1.14248434      0.00000000
    N      1.40777039      1.14248434      0.00000000
    H     -0.38724410     -1.20778240      0.00000000
    H     -3.11706187     -0.01370100      0.00000000
    H     -1.96459656     -1.97703662      0.00000000
    H      1.96459656      1.97703662      0.00000000
    H      0.38724410      1.20778240      0.00000000
    H      3.11706187      0.01370100      0.00000000
    O     -1.45220039      1.14363434      0.00000000
    O      1.45220039     -1.14363434      0.00000000
$end
   
$rem
mem_static = 200
mem_total  = 7500
exchange = b3lyp
basis = G3Large
max_scf_cycles = 50
scf_convergence = 7
symmetry = false
xc_grid = 000075000302
$end
