$molecule
0    1
    C     -0.29406242      0.57696416      0.00000000
    O      0.27238674      1.66771547      0.00000000
    N      0.31681676     -0.61840318      0.00000000
    H     -0.24000940     -1.45295541      0.00000000
    H      1.33734305     -0.68370119      0.00000000
    H     -1.39247473      0.51038014      0.00000000
$end
   
$rem
mem_static = 200
mem_total  = 7500
exchange = b3lyp
basis = G3Large
max_scf_cycles = 50
scf_convergence = 7
symmetry = false
xc_grid = 000075000302
$end
