$molecule
0    1
    O     -1.47861893     -2.01917715     -0.38424748
    N     -1.54525258      0.23084314      0.00228882
    N      1.35176487      0.23063064     -0.03289209
    N      1.30731556     -2.04164411      0.40287375
    C     -2.19894799      1.39736545      0.21689709
    C     -2.15838106     -0.99708925     -0.20688273
    C     -3.59660129     -0.93853500     -0.19269983
    C     -4.26673811      0.23632724      0.01915473
    C      2.03442338     -0.91368497      0.15116867
    C      3.44276253     -0.93494962      0.13756146
    C      4.13759376      0.24023863     -0.06953420
    C      3.42897464      1.42816211     -0.26191765
    C      2.04701711      1.36199301     -0.23447875
    C     -3.56425796      1.44497180      0.23313400
    H     -1.57391717      2.26507053      0.37156063
    H     -4.12112097     -1.86818548     -0.35486829
    H     -0.50752391      0.22787304     -0.00958748
    H     -5.34880335      0.23740312      0.02420063
    H      3.96492468     -1.86947590      0.29074710
    H      5.21894692      0.23326123     -0.08327620
    H      3.93009614      2.36909212     -0.42994659
    H      1.45299100      2.25604464     -0.38399790
    H     -4.07303166      2.37941701      0.40450025
    H      1.78847475     -2.91461774      0.27709730
    H      0.32790963     -2.04133450      0.11314476
$end
   
$rem
mem_static = 200
mem_total  = 7500
exchange = b3lyp
basis = G3Large
max_scf_cycles = 50
scf_convergence = 7
symmetry = false
xc_grid = 000075000302
$end
