$molecule
0    1
    N     -0.34230880      1.76355282      0.00000000
    N      1.65332623      0.61122836      0.00000000
    C     -0.41287470     -0.61925760      0.00000000
    C      1.04280061     -0.62945888      0.00000000
    C     -1.03485159      0.58072246      0.00000000
    C      1.03933803      1.84355130      0.00000000
    C     -1.13178402     -1.92691299      0.00000000
    O      1.71149146     -1.66485924      0.00000000
    O      1.63726208      2.90478132      0.00000000
    H     -0.82288644      2.64766496      0.00000000
    H      2.69520151      0.62585966      0.00000000
    H     -2.11214531      0.66968994      0.00000000
    H     -0.85647437     -2.51434555     -0.87477149
    H     -0.85647437     -2.51434555      0.87477149
    H     -2.20962033     -1.77787103      0.00000000
$end
   
$rem
mem_static = 200
mem_total  = 7500
exchange = b3lyp
basis = G3Large
max_scf_cycles = 50
scf_convergence = 7
symmetry = false
xc_grid = 000075000302
$end
