$molecule
0    1
    C     -0.47192515     -0.47192515     -1.85911158
    C      0.47192515      0.47192515     -1.85911158
    C     -0.47192515      0.47192515      1.85911158
    C      0.47192515     -0.47192515      1.85911158
    H     -0.87046427     -0.87046427     -2.78330873
    H      0.87046427      0.87046427     -2.78330873
    H     -0.87242223     -0.87242223     -0.93612524
    H      0.87242223      0.87242223     -0.93612524
    H     -0.87242223      0.87242223      0.93612524
    H      0.87242223     -0.87242223      0.93612524
    H     -0.87046427      0.87046427      2.78330873
    H      0.87046427     -0.87046427      2.78330873
$end
   
$rem
mem_static = 200
mem_total  = 7500
exchange = b3lyp
basis = G3Large
max_scf_cycles = 50
scf_convergence = 7
symmetry = false
xc_grid = 000075000302
$end
