$molecule
0    1
    H     -2.97346838      1.36333212      0.00000000
    H     -0.80859540      2.55299138      0.00000000
    H      2.17455656      2.04025841      0.00000000
    H     -0.99895834     -2.45671285      0.00000000
    H     -3.07255069     -1.10021841      0.00000000
    H      1.79917515     -2.14891474      0.00000000
    H      3.49609257     -0.30962562      0.00000000
    C      2.43400424     -0.13051817      0.00000000
    C      0.26573479     -0.69655221      0.00000000
    C     -0.95416305     -1.37550529      0.00000000
    C     -2.05038236      0.79920846      0.00000000
    C     -2.10885073     -0.60906481      0.00000000
    C      0.35078970      0.72351657      0.00000000
    C      1.73707243      1.05632387      0.00000000
    C     -0.83866207      1.47091558      0.00000000
    N      1.54820559     -1.17943431      0.00000000
$end
   
$rem
mem_static = 200
mem_total  = 7500
exchange = b3lyp
basis = G3Large
max_scf_cycles = 50
scf_convergence = 7
symmetry = false
xc_grid = 000075000302
$end
