$molecule
0    1
    C      1.20625460     -0.69643142      0.00000000
    C      1.20625460      0.69643142      0.00000000
    C      0.00000000      1.39286284      0.00000000
    C     -1.20625460      0.69643142      0.00000000
    C     -1.20625460     -0.69643142      0.00000000
    C      0.00000000     -1.39286284      0.00000000
    H      2.14344169      1.23751664      0.00000000
    H      0.00000000      2.47503328      0.00000000
    H     -2.14344169      1.23751664      0.00000000
    H     -2.14344169     -1.23751664      0.00000000
    H      0.00000000     -2.47503328      0.00000000
    H      2.14344169     -1.23751664      0.00000000
$end
   
$rem
mem_static = 200
mem_total  = 7500
exchange = b3lyp
basis = G3Large
max_scf_cycles = 50
scf_convergence = 7
symmetry = false
xc_grid = 000075000302
$end
