$molecule
0    1
    N      0.32088767     -0.22336759     -2.13765832
    N     -1.55612600      0.02104709     -0.91906017
    N     -1.37712327      0.37150730      2.09827440
    N      0.92734944      0.21559417      1.80419201
    N      1.98256429     -0.10787259     -0.34966104
    H     -1.19728911      0.23214368      3.07854892
    H     -2.25028779      0.00817608      1.75056402
    H      2.94762007      0.07614316      1.45413951
    H      0.90259371     -0.42258313     -2.93503725
    H     -1.61785457     -0.24751428     -3.03322982
    C     -0.44813945      0.05985647     -0.10730937
    C      0.73680501     -0.09375729     -0.83587180
    C      1.97682160      0.06159831      0.97510117
    C     -0.30455051      0.20628320      1.28357581
    C     -1.04327109     -0.15725458     -2.12656808
$end
   
$rem
mem_static = 200
mem_total  = 7500
exchange = b3lyp
basis = G3Large
max_scf_cycles = 50
scf_convergence = 7
symmetry = false
xc_grid = 000075000302
$end
