$molecule
0    1
    C     -1.20818642     -0.69754676      0.00000000
    C     -1.20818642      0.69754676      0.00000000
    C      0.00000000      1.39509351      0.00000000
    C      1.20818642      0.69754676      0.00000000
    C      1.20818642     -0.69754676      0.00000000
    C      0.00000000     -1.39509351      0.00000000
    H     -2.14402727     -1.23785472      0.00000000
    H     -2.14402727      1.23785472      0.00000000
    H      0.00000000      2.47570944      0.00000000
    H      2.14402727      1.23785472      0.00000000
    H      2.14402727     -1.23785472      0.00000000
    H      0.00000000     -2.47570944      0.00000000
$end
   
$rem
mem_static = 200
mem_total  = 7500
exchange = b3lyp
basis = G3Large
max_scf_cycles = 50
scf_convergence = 7
symmetry = false
xc_grid = 000075000302
$end
