$molecule
0    1
    C     -0.71280126     -0.86869656      0.00000000
    C     -1.28310346      0.40149068      0.00000000
    C     -0.45403364      1.51850501      0.00000000
    C      0.93257351      1.37415771      0.00000000
    C      1.49051199      0.09872807      0.00000000
    C      0.66969201     -1.02727157      0.00000000
    H     -1.05067945     -2.75459808      0.00000000
    H     -2.35971140      0.50022203      0.00000000
    H     -0.89751416      2.50439773      0.00000000
    H      1.57063219      2.24607120      0.00000000
    H      2.56429788     -0.02704483      0.00000000
    H      1.10248866     -2.02051368      0.00000000
    O     -1.57235287     -1.94544771      0.00000000
$end
   
$rem
mem_static = 200
mem_total  = 7500
exchange = b3lyp
basis = G3Large
max_scf_cycles = 50
scf_convergence = 7
symmetry = false
xc_grid = 000075000302
$end
