$molecule
0    1
    C      0.03378100      2.51316482      0.68311375
    C      0.69898095      1.82824087     -0.50524416
    C      0.69898095      0.30513798     -0.40083117
    C     -0.69898095     -0.30513798     -0.40083117
    C     -0.69898095     -1.82824087     -0.50524416
    C     -0.03378100     -2.51316482      0.68311375
    H      0.50038096      2.19975184      1.61772568
    H     -1.02583193      2.27157783      0.74346175
    H      0.12105199      3.59633774      0.61360576
    H      1.72888687      2.17915584     -0.59037016
    H      0.19407699      2.12345885     -1.42817910
    H      1.23305791      0.01441800      0.50682076
    H      1.26168391     -0.11310099     -1.24010311
    H     -1.26168391      0.11310099     -1.24010311
    H     -1.23305791     -0.01441800      0.50682076
    H     -0.19407699     -2.12345885     -1.42817910
    H     -1.72888687     -2.17915584     -0.59037016
    H     -0.12105199     -3.59633774      0.61360576
    H     -0.50038096     -2.19975184      1.61772568
    H      1.02583193     -2.27157783      0.74346175
$end
   
$rem
mem_static = 200
mem_total  = 7500
exchange = b3lyp
basis = G3Large
max_scf_cycles = 50
scf_convergence = 7
symmetry = false
xc_grid = 000075000302
$end
