$molecule
0    1
    C      0.68285995      2.93364079     -0.29985488
    C      0.68285995      1.41342090     -0.39768387
    C     -0.03029400      0.76238494      0.78169004
    C      0.03029400     -0.76238494      0.78169004
    C     -0.68285995     -1.41342090     -0.39768387
    C     -0.68285995     -2.93364079     -0.29985488
    H      1.18477691      3.26315876      0.60974406
    H     -0.33659198      3.31839876     -0.27216688
    H      1.18996091      3.39223475     -1.14731582
    H      1.71132588      1.04569192     -0.43868787
    H      0.20831199      1.11119792     -1.33210280
    H     -1.07662692      1.08214092      0.78922404
    H      0.41248197      1.13952792      1.70715398
    H     -0.41248197     -1.13952792      1.70715398
    H      1.07662692     -1.08214092      0.78922404
    H     -0.20831199     -1.11119792     -1.33210280
    H     -1.71132588     -1.04569192     -0.43868787
    H     -1.18996091     -3.39223475     -1.14731582
    H     -1.18477691     -3.26315876      0.60974406
    H      0.33659198     -3.31839876     -0.27216688
$end
   
$rem
mem_static = 200
mem_total  = 7500
exchange = b3lyp
basis = G3Large
max_scf_cycles = 50
scf_convergence = 7
symmetry = false
xc_grid = 000075000302
$end
