$molecule
0    1
    C     -0.06823699      1.75241287     -1.07400732
    C      0.82355194      1.38734390      0.10912759
    C      0.06823699      0.76207594      1.28807851
    C     -0.06823699     -0.76207594      1.28807851
    C     -0.82355194     -1.38734390      0.10912759
    C      0.06823699     -1.75241287     -1.07400732
    H     -0.81169394      2.48895282     -0.76895334
    H     -0.60360596      0.89107894     -1.46648129
    H      0.51192096      2.18426884     -1.88888426
    H      1.31625590      2.29879583      0.45146757
    H      1.62377588      0.71585495     -0.20937238
    H     -0.92922493      1.20834291      1.34332950
    H      0.57318796      1.03884892      2.21569544
    H     -0.57318796     -1.03884892      2.21569544
    H      0.92922493     -1.20834291      1.34332950
    H     -1.62377588     -0.71585495     -0.20937238
    H     -1.31625590     -2.29879583      0.45146757
    H     -0.51192096     -2.18426884     -1.88888426
    H      0.81169394     -2.48895282     -0.76895334
    H      0.60360596     -0.89107894     -1.46648129
$end
   
$rem
mem_static = 200
mem_total  = 7500
exchange = b3lyp
basis = G3Large
max_scf_cycles = 50
scf_convergence = 7
symmetry = false
xc_grid = 000075000302
$end
