$molecule
0    1
    C      0.00000000      1.83370887     -0.65002807
    C      0.83543094      0.97711593      0.29354486
    C      0.00000000      0.00000000      1.11885380
    C     -0.83543094     -0.97711593      0.29354486
    C      0.00000000     -1.83370887     -0.65002807
    H      0.61388396      2.57798581     -1.15481003
    H     -1.58854188     -0.43094397     -0.27679410
    H     -1.38612390     -1.62597288      0.97650981
    H     -0.78240994      2.36106383     -0.10314811
    H     -0.48280296      1.23077991     -1.41772301
    H     -0.66370195      0.57114696      1.77302175
    H      0.66370195     -0.57114696      1.77302175
    H      1.58854188      0.43094397     -0.27679410
    H      1.38612390      1.62597288      0.97650981
    H     -0.61388396     -2.57798581     -1.15481003
    H      0.48280296     -1.23077991     -1.41772301
    H      0.78240994     -2.36106383     -0.10314811
$end
   
$rem
mem_static = 200
mem_total  = 7500
exchange = b3lyp
basis = G3Large
max_scf_cycles = 50
scf_convergence = 7
symmetry = false
xc_grid = 000075000302
$end
