%nproc=8
#P TPSSTPSS/6-311+g(3df,2p) scf=tight iop(3/76=0500005000,5/33=1)
extraoverlay

8/10=90/1;9/16=-3/6;
3/5=4,6=6,7=216,11=2,16=1,25=1,30=1,74=203/1,2,3;
5/5=2,6=-2,32=1,33=1,38=5/2;

ts13; geometry from JPCA, 2005, 109, 2012-2018

0  2
     Cl                 1.454749   -0.001237   -0.000040
      F                -0.323587    0.004631    0.000124
      C                -2.387418   -0.002147   -0.000073
      H                -2.495086   -0.855361   -0.649404
      H                -2.497313   -0.138673    1.063139
      H                -2.501537    0.986269   -0.413734



