%nproc=8
#P TPSSTPSS/6-311+g(3df,2p) scf=tight iop(3/76=0500005000,5/33=1)
extraoverlay

8/10=90/1;9/16=-3/6;
3/5=4,6=6,7=216,11=2,16=1,25=1,30=1,74=203/1,2,3;
5/5=2,6=-2,32=1,33=1,38=5/2;

ts6; geometry from JPCA, 2005, 109, 2012-2018

-1 1
      F                .003098    -.018892    -.015456
      C               -.000149    -.000140    1.807857
      H               1.069449     .001708    1.809761
      H               -.536607     .925133    1.796935
      H               -.532601    -.927783    1.817058
      F               -.003191     .019974    3.631845





