%nproc=8
#P TPSSTPSS/6-311+g(3df,2p) scf=tight iop(3/76=0500005000,5/33=1)
extraoverlay

8/10=90/1;9/16=-3/6;
3/5=4,6=6,7=216,11=2,16=1,25=1,30=1,74=203/1,2,3;
5/5=2,6=-2,32=1,33=1,38=5/2;

ts7; geometry from JPCA, 2005, 109, 2012-2018

-1 1
     Cl                 2.322581    -.000132     .000140
      C                 -.000085     .000491    -.000509
      H                  .000077    -.744290    -.767605
      H                 -.000320    -.291443    1.028021
      H                  .000081    1.037218    -.261959
     Cl                -2.322542    -.000129     .000130



