$molecule
0 1
C      1.39150000    -0.00000000     3.10425
H      2.47150000    -0.00000000     3.10425
C      0.69575000     1.20507434     3.10425
H      1.23575000     2.14038178     3.10425
C      0.69575000    -1.20507434     3.10425
H      1.23575000    -2.14038178     3.10425
C     -0.69575000     1.20507434     3.10425
H     -1.23575000     2.14038178     3.10425
C     -0.69575000    -1.20507434     3.10425
H     -1.23575000    -2.14038178     3.10425
C     -1.39150000    -0.00000000     3.10425
H     -2.47150000    -0.00000000     3.10425
C      0.00000000     0.00000000    -1.10425000
C     -0.00000000    -1.20507434    -1.80000000
H     -0.00000000    -2.14038178    -1.26000000
H      0.00000000     0.00000000    -0.02425000
C     -0.00000000    -1.20507434    -3.19150000
H     -0.00000000    -2.14038178    -3.73150000
C     -0.00000000     0.00000000    -3.88725000
H     -0.00000000     0.00000000    -4.96725000
C     -0.00000000     1.20507434    -3.19150000
H      0.00000000     2.14038178    -3.73150000
C      0.00000000     1.20507434    -1.80000000
H      0.00000000     2.14038178    -1.26000000
$end
   
$rem
mem_static = 200
mem_total  = 7500
exchange = b3lyp
basis = 6-311+g(3df,2p)
scf_convergence = 7
symmetry = false
xc_grid = 000075000302
$end
