lattice_vector 1.2678 -2.1959 0.0000
lattice_vector 1.2678 2.1959 0.0000
lattice_vector 0.0000 0.0000 4.1405

atom   1.2678 0.7320 0.0000 B
atom   1.2678 -0.7320 2.0703 B
atom   1.2678 0.7320 1.5527 N
atom   1.2678 -0.7320 3.6230 N
