$molecule
0    1
    O      0.21923715      0.95151447      0.00000000
    C     -0.31203869     -0.28547833      0.00000000
    O      0.31458792     -1.30608450      0.00000000
    H      1.18437053      0.85550555      0.00000000
    H     -1.40615690     -0.21545719      0.00000000
$end
   
$rem
mem_static = 200
mem_total  = 7500
exchange = b3lyp
basis = G3Large
max_scf_cycles = 50
scf_convergence = 7
symmetry = false
xc_grid = 000075000302
$end
