$molecule
0    1
    C     -0.96294294      0.07844148      0.00000000
    C      0.53003137      0.25145372      0.00000000
    O      1.12197710      1.29926991      0.00000000
    O      1.17080864     -0.94650876      0.00000000
    H      2.11986637     -0.75512782      0.00000000
    H     -1.44169360      1.05231140      0.00000000
    H     -1.26902347     -0.48991996      0.87848752
    H     -1.26902347     -0.48991996     -0.87848752
$end
   
$rem
mem_static = 200
mem_total  = 7500
exchange = b3lyp
basis = G3Large
max_scf_cycles = 50
scf_convergence = 7
symmetry = false
xc_grid = 000075000302
$end
