$molecule
0    1
   Si      0.00000000      0.00000000      1.17783375
   Si      0.00000000      0.00000000     -1.17783375
    H      1.20770428     -0.69726839      1.69586582
    H      0.00000000      1.39453678      1.69586582
    H     -1.20770428     -0.69726839      1.69586582
    H      1.20770428      0.69726839     -1.69586582
    H      0.00000000     -1.39453678     -1.69586582
    H     -1.20770428      0.69726839     -1.69586582
$end
   
$rem
mem_static = 200
mem_total  = 7500
exchange = b3lyp
basis = G3Large
max_scf_cycles = 50
scf_convergence = 7
symmetry = false
xc_grid = 000075000302
$end
