$molecule
0    1
    S      0.00000000      0.00000000      0.49763433
    O     -1.24891404      0.00000000     -0.24881717
    O      1.24891404      0.00000000     -0.24881717
$end
   
$rem
mem_static = 200
mem_total  = 7500
exchange = b3lyp
basis = G3Large
max_scf_cycles = 50
scf_convergence = 7
symmetry = false
xc_grid = 000075000302
$end
