$molecule
0    1
    B      0.00000000      0.00000000      0.00000000
    F      0.65836692      1.14032495      0.00000000
    F      0.65836692     -1.14032495      0.00000000
    F     -1.31673383      0.00000000      0.00000000
$end
   
$rem
mem_static = 200
mem_total  = 7500
exchange = b3lyp
basis = G3Large
max_scf_cycles = 50
scf_convergence = 7
symmetry = false
xc_grid = 000075000302
$end
