$molecule
0    1
    C     -0.43451646      0.75260459      0.00000000
    C     -0.43451646     -0.75260459      0.00000000
    C      0.86903293      0.00000000      0.00000000
    H     -0.72760991      1.26025734      0.90813070
    H     -0.72760991      1.26025734     -0.90813070
    H     -0.72760991     -1.26025734      0.90813070
    H     -0.72760991     -1.26025734     -0.90813070
    H      1.45521982      0.00000000     -0.90813070
    H      1.45521982      0.00000000      0.90813070
$end
   
$rem
mem_static = 200
mem_total  = 7500
exchange = b3lyp
basis = G3Large
max_scf_cycles = 50
scf_convergence = 7
symmetry = false
xc_grid = 000075000302
$end
