$molecule
0    1
    C      0.00000000     -0.66758517      0.92642365
    C      0.00000000     -0.78551061     -0.58522122
    C      0.00000000      0.78551061     -0.58522122
    C      0.00000000      0.66758517      0.92642365
    H      0.00000000     -1.41045913      1.71319196
    H      0.88703947     -1.24267432     -1.02719720
    H     -0.88703947     -1.24267432     -1.02719720
    H     -0.88703947      1.24267432     -1.02719720
    H      0.88703947      1.24267432     -1.02719720
    H      0.00000000      1.41045913      1.71319196
$end
   
$rem
mem_static = 200
mem_total  = 7500
exchange = b3lyp
basis = G3Large
max_scf_cycles = 50
scf_convergence = 7
symmetry = false
xc_grid = 000075000302
$end
