$molecule
0    1
    C      0.00000000     -6.34744637     -0.36782003
    C      0.00000000     -5.08622415      0.48590458
    C      0.00000000     -3.81470145     -0.35131395
    C      0.00000000     -2.54154501      0.48245065
    C      0.00000000     -1.27224226     -0.35833648
    C      0.00000000      0.00000000      0.47746276
    C      0.00000000      1.27224226     -0.35833648
    C      0.00000000      2.54154501      0.48245065
    C      0.00000000      3.81470145     -0.35131395
    C      0.00000000      5.08622415      0.48590458
    C      0.00000000      6.34744637     -0.36782003
    H      0.00000000     -7.24804208      0.24566056
    H     -0.88190900     -6.37605652     -1.00906603
    H      0.88190900     -6.37605652     -1.00906603
    H      0.87759071     -5.08230428      1.13774560
    H     -0.87759071     -5.08230428      1.13774560
    H      0.87736455     -3.81444777     -1.00569534
    H     -0.87736455     -3.81444777     -1.00569534
    H      0.87802830     -2.53884738      1.13583263
    H     -0.87802830     -2.53884738      1.13583263
    H      0.87796820     -1.27381478     -1.01196216
    H     -0.87796820     -1.27381478     -1.01196216
    H      0.87794399      0.00000000      1.13101389
    H     -0.87794399      0.00000000      1.13101389
    H      0.87796820      1.27381478     -1.01196216
    H     -0.87796820      1.27381478     -1.01196216
    H      0.87802830      2.53884738      1.13583263
    H     -0.87802830      2.53884738      1.13583263
    H      0.87736455      3.81444777     -1.00569534
    H     -0.87736455      3.81444777     -1.00569534
    H      0.87759071      5.08230428      1.13774560
    H     -0.87759071      5.08230428      1.13774560
    H      0.88190900      6.37605652     -1.00906603
    H      0.00000000      7.24804208      0.24566056
    H     -0.88190900      6.37605652     -1.00906603
$end
   
$rem
mem_static = 200
mem_total  = 7500
exchange = b3lyp
basis = G3Large
max_scf_cycles = 50
scf_convergence = 7
symmetry = false
xc_grid = 000075000302
$end
