#p b3lyp 6-311+g(3df,2p) scf=tight nosymm

c2

0    1
    C      0.00000000      1.24928561     -1.27706260
    C      0.00000000     -1.24928561     -1.27706260
    C      1.26698859      0.00000000      0.50206639
    C     -1.26698859      0.00000000      0.50206639
    C      0.00000000      0.00000000     -2.16024713
    C      1.24728088      1.24400610     -0.39199033
    C     -1.24728088      1.24400610     -0.39199033
    C     -1.24728088     -1.24400610     -0.39199033
    C      1.24728088     -1.24400610     -0.39199033
    C      0.00000000      0.00000000      1.36228795
    H      0.88122686      0.00000000     -2.80774269
    H     -0.88122686      0.00000000     -2.80774269
    H      1.26804406      2.14175047      0.23458363
    H     -1.26804406      2.14175047      0.23458363
    H     -1.26804406     -2.14175047      0.23458363
    H      1.26804406     -2.14175047      0.23458363
    H      2.14930300      1.25983461     -1.01236666
    H     -2.14930300      1.25983461     -1.01236666
    H     -2.14930300     -1.25983461     -1.01236666
    H      2.14930300     -1.25983461     -1.01236666
    H      0.00000000     -0.88207666      2.01339498
    H      0.00000000      0.88207666      2.01339498
    H      0.00000000      2.14355681     -1.90486189
    H      0.00000000     -2.14355681     -1.90486189
    C      2.50498462      0.00000000      1.38436197
    C     -2.50498462      0.00000000      1.38436197
    H      2.52447232      0.88376892      2.02487476
    H     -2.52447232      0.88376892      2.02487476
    H     -2.52447232     -0.88376892      2.02487476
    H      2.52447232     -0.88376892      2.02487476
    H      3.41313374      0.00000000      0.77862065
    H     -3.41313374      0.00000000      0.77862065
 
 
 
