#p b3lyp 6-311+g(3df,2p) scf=tight nosymm

c3

0    1
    C      0.00000000     -1.24841454     -1.46184210
    C      0.00000000      1.24841454     -1.46184210
    C     -1.24443761      0.00000000      0.32261824
    C      1.24443761      0.00000000      0.32261824
    C      0.00000000      0.00000000     -2.34630015
    C     -1.25400914     -1.23900256     -0.58211642
    C     -1.25400914      1.23900256     -0.58211642
    C      1.25400914      1.23900256     -0.58211642
    C      1.25400914     -1.23900256     -0.58211642
    C      0.00000000      0.00000000      1.23781303
    H     -0.88175633      0.00000000     -2.99330359
    H      0.88175633      0.00000000     -2.99330359
    H     -1.31432917     -2.15566377      0.00590617
    H     -1.31432917      2.15566377      0.00590617
    H      1.31432917      2.15566377      0.00590617
    H      1.31432917     -2.15566377      0.00590617
    H     -2.14487485     -1.21279786     -1.21637576
    H     -2.14487485      1.21279786     -1.21637576
    H      2.14487485      1.21279786     -1.21637576
    H      2.14487485     -1.21279786     -1.21637576
    C      0.00000000      1.22017436      2.16232607
    C      0.00000000     -1.22017436      2.16232607
    H      0.00000000     -2.14301638     -2.08922019
    H      0.00000000      2.14301638     -2.08922019
    H     -2.13938411      0.00000000      0.95429117
    H      2.13938411      0.00000000      0.95429117
    H      0.88201979      1.19881720      2.80560675
    H      0.88201979     -1.19881720      2.80560675
    H     -0.88201979     -1.19881720      2.80560675
    H     -0.88201979      1.19881720      2.80560675
    H      0.00000000      2.16869212      1.63333248
    H      0.00000000     -2.16869212      1.63333248
 
 
 
