#p b3lyp 6-311+g(3df,2p) scf=tight nosymm

h6

0    1
    C      0.00000000     -3.80456051     -0.33688960
    C      0.00000000     -2.54329209      0.51698479
    C      0.00000000     -1.27100957     -0.32006104
    C      0.00000000      0.00000000      0.51854929
    C      0.00000000      1.27100957     -0.32006104
    C      0.00000000      2.54329209      0.51698479
    C      0.00000000      3.80456051     -0.33688960
    H      0.87964762     -3.83648223     -0.97954911
    H      0.00000000     -4.70543091      0.27471175
    H     -0.87964762     -3.83648223     -0.97954911
    H      0.87453256     -2.54069921      1.17143660
    H     -0.87453256     -2.54069921      1.17143660
    H      0.87532362     -1.27132259     -0.97604041
    H     -0.87532362     -1.27132259     -0.97604041
    H      0.87545195      0.00000000      1.17428529
    H     -0.87545195      0.00000000      1.17428529
    H      0.87532362      1.27132259     -0.97604041
    H     -0.87532362      1.27132259     -0.97604041
    H      0.87453256      2.54069921      1.17143660
    H     -0.87453256      2.54069921      1.17143660
    H      0.87964762      3.83648223     -0.97954911
    H      0.00000000      4.70543091      0.27471175
    H     -0.87964762      3.83648223     -0.97954911
 
 
 
