#p b3lyp 6-311+g(3df,2p) scf=tight nosymm

r16

0    1
    C      2.82447296     -1.36473673     -0.01989446
    C      4.19736835     -0.91110954      0.46628301
    C      4.56867915      0.43803756     -0.14022332
    C      3.49733819      1.47849939      0.16791454
    C      2.12443453      1.01687882     -0.31448432
    C      1.73654490     -0.33518977      0.28243099
    C      0.37993010     -0.82504517     -0.21748600
    C     -0.80233585      0.05591271      0.16847548
    C     -2.14057994     -0.54324823     -0.24586549
    C     -3.32940610      0.33423335      0.12217649
    C     -4.66845825     -0.26564518     -0.28614169
    C     -5.84581924      0.62485371      0.08872356
    H      2.55768642     -2.32362709      0.43036491
    H      2.86038557     -1.52344494     -1.10341415
    H      4.18009424     -0.82107713      1.55643606
    H      4.95205001     -1.66044854      0.22234362
    H      4.66157657      0.32959858     -1.22495043
    H      5.53990819      0.76937481      0.23027371
    H      3.45879925      1.64233878      1.24896976
    H      3.75355680      2.43634940     -0.28759295
    H      2.13701977      0.92147628     -1.40642189
    H      1.37431368      1.77032209     -0.07091435
    H      1.67688746     -0.21837880      1.37236625
    H      0.20748189     -1.83291169      0.17284815
    H      0.42064789     -0.92086617     -1.30788121
    H     -0.79676572      0.21225709      1.25156947
    H     -0.70184234      1.04274601     -0.28806987
    H     -2.25735175     -1.52508198      0.22179203
    H     -2.13922244     -0.71522244     -1.32616172
    H     -3.32789703      0.51079284      1.20178962
    H     -3.21513139      1.31459675     -0.34950694
    H     -4.78090406     -1.24427126      0.18592954
    H     -4.66754409     -0.44191215     -1.36417585
    H     -5.87693498      0.79165359      1.16533056
    H     -6.79583918      0.18377837     -0.20884113
    H     -5.76314354      1.59851665     -0.39399199
 
 
 
