#p b3lyp 6-311+g(3df,2p) scf=tight nosymm

r9

0    1
    C      0.00000000      0.00000000     -0.99983823
    C      0.94774925     -0.80268238     -0.07823205
    C     -0.94774925      0.80268238     -0.07823205
    C     -0.74182956      0.17403845      1.30372665
    C      0.74182956     -0.17403845      1.30372665
    C      2.39330844     -0.81477987     -0.54611508
    C     -2.39330844      0.81477987     -0.54611508
    H     -0.56867444     -0.66667089     -1.65019930
    H      0.56867444      0.66667089     -1.65019930
    H      0.58701315     -1.83327578     -0.02571950
    H     -0.58701315      1.83327578     -0.02571950
    H     -1.04362342      0.83456192      2.11652166
    H     -1.33445486     -0.74258175      1.37956179
    H      1.33445486      0.74258175      1.37956179
    H      1.04362342     -0.83456192      2.11652166
    H      2.77549258      0.20526040     -0.60986639
    H      2.48860945     -1.26943340     -1.53221945
    H      3.03023099     -1.37055544      0.14246077
    H     -2.77549258     -0.20526040     -0.60986639
    H     -2.48860945      1.26943340     -1.53221945
    H     -3.03023099      1.37055544      0.14246077
 
 
 
