# The project environment :
# 	"ProjDir" specifying the storage DIR of this project
# 	"ProjCtrl" = 0 : to run all the jobs
#		   = 1 : to fetch result from existed log and chk files
#		   = 2 : to run the job without corresponding log or chk files
#       "ProjTool" = "Gaussian" : to run jobs using Gaussian package
#                  = "QChem"    : to run jobs using Q-Chem package
#                "ProjDir"          "ProjCtrl"      "ProjTool"
__project__ ::   ./S66_monomers_A      2            QChem

# The project description
__title__ ::
"========================== S66a8-monomers_A ============================"
"This is the set of S66a8 from JCTC 2011 7 3466 (Hobza)                  "
"========================================================================"


# Machine and option keyword of Gaussian Package
__qchem__ ::  1   rmp2 # 0 for serial version Q-Chem and 1 for parallel version Q-Chem
$rem
mem_static = 200
mem_total  = 7500
exchange = b3lyp
basis = 6-311+g(3df,2p)
scf_convergence = 7
symmetry = false
xc_grid = 000075000302
$end

# Specify <MicroPath> in the batch list
__macro_path__ ::
<PATH1> = .


# The molecular set to batch: 
#               528 is the total number of jobs in this batch list
__batch__ :: 528
#"Flag"                                   "DIR"                          "InpName"                          "JobType"
                01_Water-Water_1_y_-30    <PATH1>/monomers_A                  01_Water-Water_1_y_-30.in     energy
                01_Water-Water_1_y_+30    <PATH1>/monomers_A                  01_Water-Water_1_y_+30.in     energy
                01_Water-Water_1_z_-30    <PATH1>/monomers_A                  01_Water-Water_1_z_-30.in     energy
                01_Water-Water_1_z_+30    <PATH1>/monomers_A                  01_Water-Water_1_z_+30.in     energy
                01_Water-Water_2_y_-30    <PATH1>/monomers_A                  01_Water-Water_2_y_-30.in     energy
                01_Water-Water_2_y_+30    <PATH1>/monomers_A                  01_Water-Water_2_y_+30.in     energy
                01_Water-Water_2_z_-30    <PATH1>/monomers_A                  01_Water-Water_2_z_-30.in     energy
                01_Water-Water_2_z_+30    <PATH1>/monomers_A                  01_Water-Water_2_z_+30.in     energy
                 02_Water-MeOH_1_y_-30    <PATH1>/monomers_A                   02_Water-MeOH_1_y_-30.in     energy
                 02_Water-MeOH_1_y_+30    <PATH1>/monomers_A                   02_Water-MeOH_1_y_+30.in     energy
                 02_Water-MeOH_1_z_-30    <PATH1>/monomers_A                   02_Water-MeOH_1_z_-30.in     energy
                 02_Water-MeOH_1_z_+30    <PATH1>/monomers_A                   02_Water-MeOH_1_z_+30.in     energy
                 02_Water-MeOH_2_y_-30    <PATH1>/monomers_A                   02_Water-MeOH_2_y_-30.in     energy
                 02_Water-MeOH_2_y_+30    <PATH1>/monomers_A                   02_Water-MeOH_2_y_+30.in     energy
                 02_Water-MeOH_2_z_-30    <PATH1>/monomers_A                   02_Water-MeOH_2_z_-30.in     energy
                 02_Water-MeOH_2_z_+30    <PATH1>/monomers_A                   02_Water-MeOH_2_z_+30.in     energy
                03_Water-MeNH2_1_y_-30    <PATH1>/monomers_A                  03_Water-MeNH2_1_y_-30.in     energy
                03_Water-MeNH2_1_y_+30    <PATH1>/monomers_A                  03_Water-MeNH2_1_y_+30.in     energy
                03_Water-MeNH2_1_z_-30    <PATH1>/monomers_A                  03_Water-MeNH2_1_z_-30.in     energy
                03_Water-MeNH2_1_z_+30    <PATH1>/monomers_A                  03_Water-MeNH2_1_z_+30.in     energy
                03_Water-MeNH2_2_y_-30    <PATH1>/monomers_A                  03_Water-MeNH2_2_y_-30.in     energy
                03_Water-MeNH2_2_y_+30    <PATH1>/monomers_A                  03_Water-MeNH2_2_y_+30.in     energy
                03_Water-MeNH2_2_z_-30    <PATH1>/monomers_A                  03_Water-MeNH2_2_z_-30.in     energy
                03_Water-MeNH2_2_z_+30    <PATH1>/monomers_A                  03_Water-MeNH2_2_z_+30.in     energy
              04_Water-Peptide_1_y_-30    <PATH1>/monomers_A                04_Water-Peptide_1_y_-30.in     energy
              04_Water-Peptide_1_y_+30    <PATH1>/monomers_A                04_Water-Peptide_1_y_+30.in     energy
              04_Water-Peptide_1_z_-30    <PATH1>/monomers_A                04_Water-Peptide_1_z_-30.in     energy
              04_Water-Peptide_1_z_+30    <PATH1>/monomers_A                04_Water-Peptide_1_z_+30.in     energy
              04_Water-Peptide_2_y_-30    <PATH1>/monomers_A                04_Water-Peptide_2_y_-30.in     energy
              04_Water-Peptide_2_y_+30    <PATH1>/monomers_A                04_Water-Peptide_2_y_+30.in     energy
              04_Water-Peptide_2_z_-30    <PATH1>/monomers_A                04_Water-Peptide_2_z_-30.in     energy
              04_Water-Peptide_2_z_+30    <PATH1>/monomers_A                04_Water-Peptide_2_z_+30.in     energy
                  05_MeOH-MeOH_1_y_-30    <PATH1>/monomers_A                    05_MeOH-MeOH_1_y_-30.in     energy
                  05_MeOH-MeOH_1_y_+30    <PATH1>/monomers_A                    05_MeOH-MeOH_1_y_+30.in     energy
                  05_MeOH-MeOH_1_z_-30    <PATH1>/monomers_A                    05_MeOH-MeOH_1_z_-30.in     energy
                  05_MeOH-MeOH_1_z_+30    <PATH1>/monomers_A                    05_MeOH-MeOH_1_z_+30.in     energy
                  05_MeOH-MeOH_2_y_-30    <PATH1>/monomers_A                    05_MeOH-MeOH_2_y_-30.in     energy
                  05_MeOH-MeOH_2_y_+30    <PATH1>/monomers_A                    05_MeOH-MeOH_2_y_+30.in     energy
                  05_MeOH-MeOH_2_z_-30    <PATH1>/monomers_A                    05_MeOH-MeOH_2_z_-30.in     energy
                  05_MeOH-MeOH_2_z_+30    <PATH1>/monomers_A                    05_MeOH-MeOH_2_z_+30.in     energy
                 06_MeOH-MeNH2_1_y_-30    <PATH1>/monomers_A                   06_MeOH-MeNH2_1_y_-30.in     energy
                 06_MeOH-MeNH2_1_y_+30    <PATH1>/monomers_A                   06_MeOH-MeNH2_1_y_+30.in     energy
                 06_MeOH-MeNH2_1_z_-30    <PATH1>/monomers_A                   06_MeOH-MeNH2_1_z_-30.in     energy
                 06_MeOH-MeNH2_1_z_+30    <PATH1>/monomers_A                   06_MeOH-MeNH2_1_z_+30.in     energy
                 06_MeOH-MeNH2_2_y_-30    <PATH1>/monomers_A                   06_MeOH-MeNH2_2_y_-30.in     energy
                 06_MeOH-MeNH2_2_y_+30    <PATH1>/monomers_A                   06_MeOH-MeNH2_2_y_+30.in     energy
                 06_MeOH-MeNH2_2_z_-30    <PATH1>/monomers_A                   06_MeOH-MeNH2_2_z_-30.in     energy
                 06_MeOH-MeNH2_2_z_+30    <PATH1>/monomers_A                   06_MeOH-MeNH2_2_z_+30.in     energy
               07_MeOH-Peptide_1_y_-30    <PATH1>/monomers_A                 07_MeOH-Peptide_1_y_-30.in     energy
               07_MeOH-Peptide_1_y_+30    <PATH1>/monomers_A                 07_MeOH-Peptide_1_y_+30.in     energy
               07_MeOH-Peptide_1_z_-30    <PATH1>/monomers_A                 07_MeOH-Peptide_1_z_-30.in     energy
               07_MeOH-Peptide_1_z_+30    <PATH1>/monomers_A                 07_MeOH-Peptide_1_z_+30.in     energy
               07_MeOH-Peptide_2_y_-30    <PATH1>/monomers_A                 07_MeOH-Peptide_2_y_-30.in     energy
               07_MeOH-Peptide_2_y_+30    <PATH1>/monomers_A                 07_MeOH-Peptide_2_y_+30.in     energy
               07_MeOH-Peptide_2_z_-30    <PATH1>/monomers_A                 07_MeOH-Peptide_2_z_-30.in     energy
               07_MeOH-Peptide_2_z_+30    <PATH1>/monomers_A                 07_MeOH-Peptide_2_z_+30.in     energy
                 08_MeOH-Water_1_y_-30    <PATH1>/monomers_A                   08_MeOH-Water_1_y_-30.in     energy
                 08_MeOH-Water_1_y_+30    <PATH1>/monomers_A                   08_MeOH-Water_1_y_+30.in     energy
                 08_MeOH-Water_1_z_-30    <PATH1>/monomers_A                   08_MeOH-Water_1_z_-30.in     energy
                 08_MeOH-Water_1_z_+30    <PATH1>/monomers_A                   08_MeOH-Water_1_z_+30.in     energy
                 08_MeOH-Water_2_y_-30    <PATH1>/monomers_A                   08_MeOH-Water_2_y_-30.in     energy
                 08_MeOH-Water_2_y_+30    <PATH1>/monomers_A                   08_MeOH-Water_2_y_+30.in     energy
                 08_MeOH-Water_2_z_-30    <PATH1>/monomers_A                   08_MeOH-Water_2_z_-30.in     energy
                 08_MeOH-Water_2_z_+30    <PATH1>/monomers_A                   08_MeOH-Water_2_z_+30.in     energy
                 09_MeNH2-MeOH_1_y_-30    <PATH1>/monomers_A                   09_MeNH2-MeOH_1_y_-30.in     energy
                 09_MeNH2-MeOH_1_y_+30    <PATH1>/monomers_A                   09_MeNH2-MeOH_1_y_+30.in     energy
                 09_MeNH2-MeOH_1_z_-30    <PATH1>/monomers_A                   09_MeNH2-MeOH_1_z_-30.in     energy
                 09_MeNH2-MeOH_1_z_+30    <PATH1>/monomers_A                   09_MeNH2-MeOH_1_z_+30.in     energy
                 09_MeNH2-MeOH_2_y_-30    <PATH1>/monomers_A                   09_MeNH2-MeOH_2_y_-30.in     energy
                 09_MeNH2-MeOH_2_y_+30    <PATH1>/monomers_A                   09_MeNH2-MeOH_2_y_+30.in     energy
                 09_MeNH2-MeOH_2_z_-30    <PATH1>/monomers_A                   09_MeNH2-MeOH_2_z_-30.in     energy
                 09_MeNH2-MeOH_2_z_+30    <PATH1>/monomers_A                   09_MeNH2-MeOH_2_z_+30.in     energy
                10_MeNH2-MeNH2_1_y_-30    <PATH1>/monomers_A                  10_MeNH2-MeNH2_1_y_-30.in     energy
                10_MeNH2-MeNH2_1_y_+30    <PATH1>/monomers_A                  10_MeNH2-MeNH2_1_y_+30.in     energy
                10_MeNH2-MeNH2_1_z_-30    <PATH1>/monomers_A                  10_MeNH2-MeNH2_1_z_-30.in     energy
                10_MeNH2-MeNH2_1_z_+30    <PATH1>/monomers_A                  10_MeNH2-MeNH2_1_z_+30.in     energy
                10_MeNH2-MeNH2_2_y_-30    <PATH1>/monomers_A                  10_MeNH2-MeNH2_2_y_-30.in     energy
                10_MeNH2-MeNH2_2_y_+30    <PATH1>/monomers_A                  10_MeNH2-MeNH2_2_y_+30.in     energy
                10_MeNH2-MeNH2_2_z_-30    <PATH1>/monomers_A                  10_MeNH2-MeNH2_2_z_-30.in     energy
                10_MeNH2-MeNH2_2_z_+30    <PATH1>/monomers_A                  10_MeNH2-MeNH2_2_z_+30.in     energy
              11_MeNH2-Peptide_1_y_-30    <PATH1>/monomers_A                11_MeNH2-Peptide_1_y_-30.in     energy
              11_MeNH2-Peptide_1_y_+30    <PATH1>/monomers_A                11_MeNH2-Peptide_1_y_+30.in     energy
              11_MeNH2-Peptide_1_z_-30    <PATH1>/monomers_A                11_MeNH2-Peptide_1_z_-30.in     energy
              11_MeNH2-Peptide_1_z_+30    <PATH1>/monomers_A                11_MeNH2-Peptide_1_z_+30.in     energy
              11_MeNH2-Peptide_2_y_-30    <PATH1>/monomers_A                11_MeNH2-Peptide_2_y_-30.in     energy
              11_MeNH2-Peptide_2_y_+30    <PATH1>/monomers_A                11_MeNH2-Peptide_2_y_+30.in     energy
              11_MeNH2-Peptide_2_z_-30    <PATH1>/monomers_A                11_MeNH2-Peptide_2_z_-30.in     energy
              11_MeNH2-Peptide_2_z_+30    <PATH1>/monomers_A                11_MeNH2-Peptide_2_z_+30.in     energy
                12_MeNH2-Water_1_y_-30    <PATH1>/monomers_A                  12_MeNH2-Water_1_y_-30.in     energy
                12_MeNH2-Water_1_y_+30    <PATH1>/monomers_A                  12_MeNH2-Water_1_y_+30.in     energy
                12_MeNH2-Water_1_z_-30    <PATH1>/monomers_A                  12_MeNH2-Water_1_z_-30.in     energy
                12_MeNH2-Water_1_z_+30    <PATH1>/monomers_A                  12_MeNH2-Water_1_z_+30.in     energy
                12_MeNH2-Water_2_y_-30    <PATH1>/monomers_A                  12_MeNH2-Water_2_y_-30.in     energy
                12_MeNH2-Water_2_y_+30    <PATH1>/monomers_A                  12_MeNH2-Water_2_y_+30.in     energy
                12_MeNH2-Water_2_z_-30    <PATH1>/monomers_A                  12_MeNH2-Water_2_z_-30.in     energy
                12_MeNH2-Water_2_z_+30    <PATH1>/monomers_A                  12_MeNH2-Water_2_z_+30.in     energy
               13_Peptide-MeOH_1_y_-30    <PATH1>/monomers_A                 13_Peptide-MeOH_1_y_-30.in     energy
               13_Peptide-MeOH_1_y_+30    <PATH1>/monomers_A                 13_Peptide-MeOH_1_y_+30.in     energy
               13_Peptide-MeOH_1_z_-30    <PATH1>/monomers_A                 13_Peptide-MeOH_1_z_-30.in     energy
               13_Peptide-MeOH_1_z_+30    <PATH1>/monomers_A                 13_Peptide-MeOH_1_z_+30.in     energy
               13_Peptide-MeOH_2_y_-30    <PATH1>/monomers_A                 13_Peptide-MeOH_2_y_-30.in     energy
               13_Peptide-MeOH_2_y_+30    <PATH1>/monomers_A                 13_Peptide-MeOH_2_y_+30.in     energy
               13_Peptide-MeOH_2_z_-30    <PATH1>/monomers_A                 13_Peptide-MeOH_2_z_-30.in     energy
               13_Peptide-MeOH_2_z_+30    <PATH1>/monomers_A                 13_Peptide-MeOH_2_z_+30.in     energy
              14_Peptide-MeNH2_1_y_-30    <PATH1>/monomers_A                14_Peptide-MeNH2_1_y_-30.in     energy
              14_Peptide-MeNH2_1_y_+30    <PATH1>/monomers_A                14_Peptide-MeNH2_1_y_+30.in     energy
              14_Peptide-MeNH2_1_z_-30    <PATH1>/monomers_A                14_Peptide-MeNH2_1_z_-30.in     energy
              14_Peptide-MeNH2_1_z_+30    <PATH1>/monomers_A                14_Peptide-MeNH2_1_z_+30.in     energy
              14_Peptide-MeNH2_2_y_-30    <PATH1>/monomers_A                14_Peptide-MeNH2_2_y_-30.in     energy
              14_Peptide-MeNH2_2_y_+30    <PATH1>/monomers_A                14_Peptide-MeNH2_2_y_+30.in     energy
              14_Peptide-MeNH2_2_z_-30    <PATH1>/monomers_A                14_Peptide-MeNH2_2_z_-30.in     energy
              14_Peptide-MeNH2_2_z_+30    <PATH1>/monomers_A                14_Peptide-MeNH2_2_z_+30.in     energy
            15_Peptide-Peptide_1_y_-30    <PATH1>/monomers_A              15_Peptide-Peptide_1_y_-30.in     energy
            15_Peptide-Peptide_1_y_+30    <PATH1>/monomers_A              15_Peptide-Peptide_1_y_+30.in     energy
            15_Peptide-Peptide_1_z_-30    <PATH1>/monomers_A              15_Peptide-Peptide_1_z_-30.in     energy
            15_Peptide-Peptide_1_z_+30    <PATH1>/monomers_A              15_Peptide-Peptide_1_z_+30.in     energy
            15_Peptide-Peptide_2_y_-30    <PATH1>/monomers_A              15_Peptide-Peptide_2_y_-30.in     energy
            15_Peptide-Peptide_2_y_+30    <PATH1>/monomers_A              15_Peptide-Peptide_2_y_+30.in     energy
            15_Peptide-Peptide_2_z_-30    <PATH1>/monomers_A              15_Peptide-Peptide_2_z_-30.in     energy
            15_Peptide-Peptide_2_z_+30    <PATH1>/monomers_A              15_Peptide-Peptide_2_z_+30.in     energy
              16_Peptide-Water_1_y_-30    <PATH1>/monomers_A                16_Peptide-Water_1_y_-30.in     energy
              16_Peptide-Water_1_y_+30    <PATH1>/monomers_A                16_Peptide-Water_1_y_+30.in     energy
              16_Peptide-Water_1_z_-30    <PATH1>/monomers_A                16_Peptide-Water_1_z_-30.in     energy
              16_Peptide-Water_1_z_+30    <PATH1>/monomers_A                16_Peptide-Water_1_z_+30.in     energy
              16_Peptide-Water_2_y_-30    <PATH1>/monomers_A                16_Peptide-Water_2_y_-30.in     energy
              16_Peptide-Water_2_y_+30    <PATH1>/monomers_A                16_Peptide-Water_2_y_+30.in     energy
              16_Peptide-Water_2_z_-30    <PATH1>/monomers_A                16_Peptide-Water_2_z_-30.in     energy
              16_Peptide-Water_2_z_+30    <PATH1>/monomers_A                16_Peptide-Water_2_z_+30.in     energy
           17_Uracil-Uracil_BP_1_y_-30    <PATH1>/monomers_A             17_Uracil-Uracil_BP_1_y_-30.in     energy
           17_Uracil-Uracil_BP_1_y_+30    <PATH1>/monomers_A             17_Uracil-Uracil_BP_1_y_+30.in     energy
           17_Uracil-Uracil_BP_1_z_-30    <PATH1>/monomers_A             17_Uracil-Uracil_BP_1_z_-30.in     energy
           17_Uracil-Uracil_BP_1_z_+30    <PATH1>/monomers_A             17_Uracil-Uracil_BP_1_z_+30.in     energy
           17_Uracil-Uracil_BP_2_y_-30    <PATH1>/monomers_A             17_Uracil-Uracil_BP_2_y_-30.in     energy
           17_Uracil-Uracil_BP_2_y_+30    <PATH1>/monomers_A             17_Uracil-Uracil_BP_2_y_+30.in     energy
           17_Uracil-Uracil_BP_2_z_-30    <PATH1>/monomers_A             17_Uracil-Uracil_BP_2_z_-30.in     energy
           17_Uracil-Uracil_BP_2_z_+30    <PATH1>/monomers_A             17_Uracil-Uracil_BP_2_z_+30.in     energy
             18_Water-Pyridine_1_y_-30    <PATH1>/monomers_A               18_Water-Pyridine_1_y_-30.in     energy
             18_Water-Pyridine_1_y_+30    <PATH1>/monomers_A               18_Water-Pyridine_1_y_+30.in     energy
             18_Water-Pyridine_1_z_-30    <PATH1>/monomers_A               18_Water-Pyridine_1_z_-30.in     energy
             18_Water-Pyridine_1_z_+30    <PATH1>/monomers_A               18_Water-Pyridine_1_z_+30.in     energy
             18_Water-Pyridine_2_y_-30    <PATH1>/monomers_A               18_Water-Pyridine_2_y_-30.in     energy
             18_Water-Pyridine_2_y_+30    <PATH1>/monomers_A               18_Water-Pyridine_2_y_+30.in     energy
             18_Water-Pyridine_2_z_-30    <PATH1>/monomers_A               18_Water-Pyridine_2_z_-30.in     energy
             18_Water-Pyridine_2_z_+30    <PATH1>/monomers_A               18_Water-Pyridine_2_z_+30.in     energy
              19_MeOH-Pyridine_1_y_-30    <PATH1>/monomers_A                19_MeOH-Pyridine_1_y_-30.in     energy
              19_MeOH-Pyridine_1_y_+30    <PATH1>/monomers_A                19_MeOH-Pyridine_1_y_+30.in     energy
              19_MeOH-Pyridine_1_z_-30    <PATH1>/monomers_A                19_MeOH-Pyridine_1_z_-30.in     energy
              19_MeOH-Pyridine_1_z_+30    <PATH1>/monomers_A                19_MeOH-Pyridine_1_z_+30.in     energy
              19_MeOH-Pyridine_2_y_-30    <PATH1>/monomers_A                19_MeOH-Pyridine_2_y_-30.in     energy
              19_MeOH-Pyridine_2_y_+30    <PATH1>/monomers_A                19_MeOH-Pyridine_2_y_+30.in     energy
              19_MeOH-Pyridine_2_z_-30    <PATH1>/monomers_A                19_MeOH-Pyridine_2_z_-30.in     energy
              19_MeOH-Pyridine_2_z_+30    <PATH1>/monomers_A                19_MeOH-Pyridine_2_z_+30.in     energy
                  20_AcOH-AcOH_1_y_-30    <PATH1>/monomers_A                    20_AcOH-AcOH_1_y_-30.in     energy
                  20_AcOH-AcOH_1_y_+30    <PATH1>/monomers_A                    20_AcOH-AcOH_1_y_+30.in     energy
                  20_AcOH-AcOH_1_z_-30    <PATH1>/monomers_A                    20_AcOH-AcOH_1_z_-30.in     energy
                  20_AcOH-AcOH_1_z_+30    <PATH1>/monomers_A                    20_AcOH-AcOH_1_z_+30.in     energy
                  20_AcOH-AcOH_2_y_-30    <PATH1>/monomers_A                    20_AcOH-AcOH_2_y_-30.in     energy
                  20_AcOH-AcOH_2_y_+30    <PATH1>/monomers_A                    20_AcOH-AcOH_2_y_+30.in     energy
                  20_AcOH-AcOH_2_z_-30    <PATH1>/monomers_A                    20_AcOH-AcOH_2_z_-30.in     energy
                  20_AcOH-AcOH_2_z_+30    <PATH1>/monomers_A                    20_AcOH-AcOH_2_z_+30.in     energy
                21_AcNH2-AcNH2_1_y_-30    <PATH1>/monomers_A                  21_AcNH2-AcNH2_1_y_-30.in     energy
                21_AcNH2-AcNH2_1_y_+30    <PATH1>/monomers_A                  21_AcNH2-AcNH2_1_y_+30.in     energy
                21_AcNH2-AcNH2_1_z_-30    <PATH1>/monomers_A                  21_AcNH2-AcNH2_1_z_-30.in     energy
                21_AcNH2-AcNH2_1_z_+30    <PATH1>/monomers_A                  21_AcNH2-AcNH2_1_z_+30.in     energy
                21_AcNH2-AcNH2_2_y_-30    <PATH1>/monomers_A                  21_AcNH2-AcNH2_2_y_-30.in     energy
                21_AcNH2-AcNH2_2_y_+30    <PATH1>/monomers_A                  21_AcNH2-AcNH2_2_y_+30.in     energy
                21_AcNH2-AcNH2_2_z_-30    <PATH1>/monomers_A                  21_AcNH2-AcNH2_2_z_-30.in     energy
                21_AcNH2-AcNH2_2_z_+30    <PATH1>/monomers_A                  21_AcNH2-AcNH2_2_z_+30.in     energy
                22_AcOH-Uracil_1_y_-30    <PATH1>/monomers_A                  22_AcOH-Uracil_1_y_-30.in     energy
                22_AcOH-Uracil_1_y_+30    <PATH1>/monomers_A                  22_AcOH-Uracil_1_y_+30.in     energy
                22_AcOH-Uracil_1_z_-30    <PATH1>/monomers_A                  22_AcOH-Uracil_1_z_-30.in     energy
                22_AcOH-Uracil_1_z_+30    <PATH1>/monomers_A                  22_AcOH-Uracil_1_z_+30.in     energy
                22_AcOH-Uracil_2_y_-30    <PATH1>/monomers_A                  22_AcOH-Uracil_2_y_-30.in     energy
                22_AcOH-Uracil_2_y_+30    <PATH1>/monomers_A                  22_AcOH-Uracil_2_y_+30.in     energy
                22_AcOH-Uracil_2_z_-30    <PATH1>/monomers_A                  22_AcOH-Uracil_2_z_-30.in     energy
                22_AcOH-Uracil_2_z_+30    <PATH1>/monomers_A                  22_AcOH-Uracil_2_z_+30.in     energy
               23_AcNH2-Uracil_1_y_-30    <PATH1>/monomers_A                 23_AcNH2-Uracil_1_y_-30.in     energy
               23_AcNH2-Uracil_1_y_+30    <PATH1>/monomers_A                 23_AcNH2-Uracil_1_y_+30.in     energy
               23_AcNH2-Uracil_1_z_-30    <PATH1>/monomers_A                 23_AcNH2-Uracil_1_z_-30.in     energy
               23_AcNH2-Uracil_1_z_+30    <PATH1>/monomers_A                 23_AcNH2-Uracil_1_z_+30.in     energy
               23_AcNH2-Uracil_2_y_-30    <PATH1>/monomers_A                 23_AcNH2-Uracil_2_y_-30.in     energy
               23_AcNH2-Uracil_2_y_+30    <PATH1>/monomers_A                 23_AcNH2-Uracil_2_y_+30.in     energy
               23_AcNH2-Uracil_2_z_-30    <PATH1>/monomers_A                 23_AcNH2-Uracil_2_z_-30.in     energy
               23_AcNH2-Uracil_2_z_+30    <PATH1>/monomers_A                 23_AcNH2-Uracil_2_z_+30.in     energy
      24_Benzene-Benzene_pi-pi_1_y_-30    <PATH1>/monomers_A        24_Benzene-Benzene_pi-pi_1_y_-30.in     energy
      24_Benzene-Benzene_pi-pi_1_y_+30    <PATH1>/monomers_A        24_Benzene-Benzene_pi-pi_1_y_+30.in     energy
      24_Benzene-Benzene_pi-pi_1_z_-30    <PATH1>/monomers_A        24_Benzene-Benzene_pi-pi_1_z_-30.in     energy
      24_Benzene-Benzene_pi-pi_1_z_+30    <PATH1>/monomers_A        24_Benzene-Benzene_pi-pi_1_z_+30.in     energy
      24_Benzene-Benzene_pi-pi_2_y_-30    <PATH1>/monomers_A        24_Benzene-Benzene_pi-pi_2_y_-30.in     energy
      24_Benzene-Benzene_pi-pi_2_y_+30    <PATH1>/monomers_A        24_Benzene-Benzene_pi-pi_2_y_+30.in     energy
      24_Benzene-Benzene_pi-pi_2_z_-30    <PATH1>/monomers_A        24_Benzene-Benzene_pi-pi_2_z_-30.in     energy
      24_Benzene-Benzene_pi-pi_2_z_+30    <PATH1>/monomers_A        24_Benzene-Benzene_pi-pi_2_z_+30.in     energy
    25_Pyridine-Pyridine_pi-pi_1_y_-30    <PATH1>/monomers_A      25_Pyridine-Pyridine_pi-pi_1_y_-30.in     energy
    25_Pyridine-Pyridine_pi-pi_1_y_+30    <PATH1>/monomers_A      25_Pyridine-Pyridine_pi-pi_1_y_+30.in     energy
    25_Pyridine-Pyridine_pi-pi_1_z_-30    <PATH1>/monomers_A      25_Pyridine-Pyridine_pi-pi_1_z_-30.in     energy
    25_Pyridine-Pyridine_pi-pi_1_z_+30    <PATH1>/monomers_A      25_Pyridine-Pyridine_pi-pi_1_z_+30.in     energy
    25_Pyridine-Pyridine_pi-pi_2_y_-30    <PATH1>/monomers_A      25_Pyridine-Pyridine_pi-pi_2_y_-30.in     energy
    25_Pyridine-Pyridine_pi-pi_2_y_+30    <PATH1>/monomers_A      25_Pyridine-Pyridine_pi-pi_2_y_+30.in     energy
    25_Pyridine-Pyridine_pi-pi_2_z_-30    <PATH1>/monomers_A      25_Pyridine-Pyridine_pi-pi_2_z_-30.in     energy
    25_Pyridine-Pyridine_pi-pi_2_z_+30    <PATH1>/monomers_A      25_Pyridine-Pyridine_pi-pi_2_z_+30.in     energy
        26_Uracil-Uracil_pi-pi_1_y_-30    <PATH1>/monomers_A          26_Uracil-Uracil_pi-pi_1_y_-30.in     energy
        26_Uracil-Uracil_pi-pi_1_y_+30    <PATH1>/monomers_A          26_Uracil-Uracil_pi-pi_1_y_+30.in     energy
        26_Uracil-Uracil_pi-pi_1_z_-30    <PATH1>/monomers_A          26_Uracil-Uracil_pi-pi_1_z_-30.in     energy
        26_Uracil-Uracil_pi-pi_1_z_+30    <PATH1>/monomers_A          26_Uracil-Uracil_pi-pi_1_z_+30.in     energy
        26_Uracil-Uracil_pi-pi_2_y_-30    <PATH1>/monomers_A          26_Uracil-Uracil_pi-pi_2_y_-30.in     energy
        26_Uracil-Uracil_pi-pi_2_y_+30    <PATH1>/monomers_A          26_Uracil-Uracil_pi-pi_2_y_+30.in     energy
        26_Uracil-Uracil_pi-pi_2_z_-30    <PATH1>/monomers_A          26_Uracil-Uracil_pi-pi_2_z_-30.in     energy
        26_Uracil-Uracil_pi-pi_2_z_+30    <PATH1>/monomers_A          26_Uracil-Uracil_pi-pi_2_z_+30.in     energy
     27_Benzene-Pyridine_pi-pi_1_y_-30    <PATH1>/monomers_A       27_Benzene-Pyridine_pi-pi_1_y_-30.in     energy
     27_Benzene-Pyridine_pi-pi_1_y_+30    <PATH1>/monomers_A       27_Benzene-Pyridine_pi-pi_1_y_+30.in     energy
     27_Benzene-Pyridine_pi-pi_1_z_-30    <PATH1>/monomers_A       27_Benzene-Pyridine_pi-pi_1_z_-30.in     energy
     27_Benzene-Pyridine_pi-pi_1_z_+30    <PATH1>/monomers_A       27_Benzene-Pyridine_pi-pi_1_z_+30.in     energy
     27_Benzene-Pyridine_pi-pi_2_y_-30    <PATH1>/monomers_A       27_Benzene-Pyridine_pi-pi_2_y_-30.in     energy
     27_Benzene-Pyridine_pi-pi_2_y_+30    <PATH1>/monomers_A       27_Benzene-Pyridine_pi-pi_2_y_+30.in     energy
     27_Benzene-Pyridine_pi-pi_2_z_-30    <PATH1>/monomers_A       27_Benzene-Pyridine_pi-pi_2_z_-30.in     energy
     27_Benzene-Pyridine_pi-pi_2_z_+30    <PATH1>/monomers_A       27_Benzene-Pyridine_pi-pi_2_z_+30.in     energy
       28_Benzene-Uracil_pi-pi_1_y_-30    <PATH1>/monomers_A         28_Benzene-Uracil_pi-pi_1_y_-30.in     energy
       28_Benzene-Uracil_pi-pi_1_y_+30    <PATH1>/monomers_A         28_Benzene-Uracil_pi-pi_1_y_+30.in     energy
       28_Benzene-Uracil_pi-pi_1_z_-30    <PATH1>/monomers_A         28_Benzene-Uracil_pi-pi_1_z_-30.in     energy
       28_Benzene-Uracil_pi-pi_1_z_+30    <PATH1>/monomers_A         28_Benzene-Uracil_pi-pi_1_z_+30.in     energy
       28_Benzene-Uracil_pi-pi_2_y_-30    <PATH1>/monomers_A         28_Benzene-Uracil_pi-pi_2_y_-30.in     energy
       28_Benzene-Uracil_pi-pi_2_y_+30    <PATH1>/monomers_A         28_Benzene-Uracil_pi-pi_2_y_+30.in     energy
       28_Benzene-Uracil_pi-pi_2_z_-30    <PATH1>/monomers_A         28_Benzene-Uracil_pi-pi_2_z_-30.in     energy
       28_Benzene-Uracil_pi-pi_2_z_+30    <PATH1>/monomers_A         28_Benzene-Uracil_pi-pi_2_z_+30.in     energy
      29_Pyridine-Uracil_pi-pi_1_y_-30    <PATH1>/monomers_A        29_Pyridine-Uracil_pi-pi_1_y_-30.in     energy
      29_Pyridine-Uracil_pi-pi_1_y_+30    <PATH1>/monomers_A        29_Pyridine-Uracil_pi-pi_1_y_+30.in     energy
      29_Pyridine-Uracil_pi-pi_1_z_-30    <PATH1>/monomers_A        29_Pyridine-Uracil_pi-pi_1_z_-30.in     energy
      29_Pyridine-Uracil_pi-pi_1_z_+30    <PATH1>/monomers_A        29_Pyridine-Uracil_pi-pi_1_z_+30.in     energy
      29_Pyridine-Uracil_pi-pi_2_y_-30    <PATH1>/monomers_A        29_Pyridine-Uracil_pi-pi_2_y_-30.in     energy
      29_Pyridine-Uracil_pi-pi_2_y_+30    <PATH1>/monomers_A        29_Pyridine-Uracil_pi-pi_2_y_+30.in     energy
      29_Pyridine-Uracil_pi-pi_2_z_-30    <PATH1>/monomers_A        29_Pyridine-Uracil_pi-pi_2_z_-30.in     energy
      29_Pyridine-Uracil_pi-pi_2_z_+30    <PATH1>/monomers_A        29_Pyridine-Uracil_pi-pi_2_z_+30.in     energy
             30_Benzene-Ethene_1_y_-30    <PATH1>/monomers_A               30_Benzene-Ethene_1_y_-30.in     energy
             30_Benzene-Ethene_1_y_+30    <PATH1>/monomers_A               30_Benzene-Ethene_1_y_+30.in     energy
             30_Benzene-Ethene_1_z_-30    <PATH1>/monomers_A               30_Benzene-Ethene_1_z_-30.in     energy
             30_Benzene-Ethene_1_z_+30    <PATH1>/monomers_A               30_Benzene-Ethene_1_z_+30.in     energy
             30_Benzene-Ethene_2_y_-30    <PATH1>/monomers_A               30_Benzene-Ethene_2_y_-30.in     energy
             30_Benzene-Ethene_2_y_+30    <PATH1>/monomers_A               30_Benzene-Ethene_2_y_+30.in     energy
             30_Benzene-Ethene_2_z_-30    <PATH1>/monomers_A               30_Benzene-Ethene_2_z_-30.in     energy
             30_Benzene-Ethene_2_z_+30    <PATH1>/monomers_A               30_Benzene-Ethene_2_z_+30.in     energy
              31_Uracil-Ethene_1_y_-30    <PATH1>/monomers_A                31_Uracil-Ethene_1_y_-30.in     energy
              31_Uracil-Ethene_1_y_+30    <PATH1>/monomers_A                31_Uracil-Ethene_1_y_+30.in     energy
              31_Uracil-Ethene_1_z_-30    <PATH1>/monomers_A                31_Uracil-Ethene_1_z_-30.in     energy
              31_Uracil-Ethene_1_z_+30    <PATH1>/monomers_A                31_Uracil-Ethene_1_z_+30.in     energy
              31_Uracil-Ethene_2_y_-30    <PATH1>/monomers_A                31_Uracil-Ethene_2_y_-30.in     energy
              31_Uracil-Ethene_2_y_+30    <PATH1>/monomers_A                31_Uracil-Ethene_2_y_+30.in     energy
              31_Uracil-Ethene_2_z_-30    <PATH1>/monomers_A                31_Uracil-Ethene_2_z_-30.in     energy
              31_Uracil-Ethene_2_z_+30    <PATH1>/monomers_A                31_Uracil-Ethene_2_z_+30.in     energy
              32_Uracil-Ethyne_1_y_-30    <PATH1>/monomers_A                32_Uracil-Ethyne_1_y_-30.in     energy