#p b3lyp/6-311+G(3df.2p) scf=tight

He

0 1
He 0.0 0.0 0.0

