#p b3lyp/6-311+G(3df.2p) scf=tight

He_6.6

1 2
He 0.0 0.0 0.0
He 0.0 0.0 6.6

