#p b3lyp/6-311+G(3df.2p) scf=tight

He_10.2

1 2
He 0.0 0.0 0.0
He 0.0 0.0 10.2

