#p b3lyp 6-311+g(3df,2p) scf=tight nosymm

01r

0    1
    C     -1.84486852      0.10958503      0.00000000
    C     -0.60865817     -0.39942211      0.00000000
    C      0.60865817      0.39942211      0.00000000
    C      1.84486852     -0.10958503      0.00000000
    H     -2.72232377     -0.52576915      0.00000000
    H     -2.01556057      1.18164533      0.00000000
    H     -0.47628514     -1.47960442      0.00000000
    H      0.47628514      1.47960442      0.00000000
    H      2.72232377      0.52576915      0.00000000
    H      2.01556057     -1.18164533      0.00000000
 
 
 
