#p b3lyp 6-311+g(3df,2p) scf=tight nosymm

03ts

0    1
    C     -0.60440289      0.09628447      1.30447607
   Si     -0.74911343      1.43122735      0.00000000
    C      1.54144542     -0.09064058      0.69774155
    C     -1.15781214     -1.04204796      0.70423074
    C     -0.60440289      0.09628447     -1.30447607
    C      1.54144542     -0.09064058     -0.69774155
    C     -1.15781214     -1.04204796     -0.70423074
    H     -0.57568156      0.19510472      2.38339309
    H     -2.10162282      2.06016253      0.00000000
    H      0.27093286      2.50947165      0.00000000
    H      1.87608655      0.78960884      1.23339856
    H      1.64747963     -1.02087075      1.23794700
    H     -1.43721331     -1.92786949      1.26742419
    H     -0.57568156      0.19510472     -2.38339309
    H      1.87608655      0.78960884     -1.23339856
    H      1.64747963     -1.02087075     -1.23794700
    H     -1.43721331     -1.92786949     -1.26742419
 
 
 
