#p b3lyp 6-311+g(3df,2p) scf=tight nosymm

06ts

0    1
    H     -1.96835650      1.06706630      1.34307138
    C     -1.11416525      1.01457629      0.68421719
    C      0.22922213      0.72932621      1.09945031
    C     -1.11416525      1.01457629     -0.68421719
    H      1.98243762      0.70630020      0.00000000
    N      1.03477836      1.05782230      0.00000000
    C      0.22922213     -1.33411338      0.70659720
    H      0.61593224      0.86963625      2.10018860
    C      0.22922213     -1.33411338     -0.70659720
    H     -1.96835650      1.06706630     -1.34307138
    C      0.22922213      0.72932621     -1.09945031
    H      0.61593224      0.86963625     -2.10018860
    H     -0.65530612     -1.66353047     -1.23801635
    H     -0.65530612     -1.66353047      1.23801635
    H      1.15484339     -1.56502244      1.22577535
    H      1.15484339     -1.56502244     -1.22577535
 
 
 
