#p b3lyp 6-311+g(3df,2p) scf=tight nosymm

07r

0    1
    P     -0.29583688     -1.58651565      0.00000000
    C     -0.08286082     -0.32282429      1.28601836
    C     -0.08286082     -0.32282429     -1.28601836
    C     -0.08286082      0.90939306      0.72894821
    C     -0.08286082      0.90939306     -0.72894821
    H      0.99164348     -2.19229782      0.00000000
    H     -0.09867283     -0.52734035      2.34781167
    H     -0.09867283     -0.52734035     -2.34781167
    H     -0.08350882      1.83017832      1.30240537
    H     -0.08350882      1.83017832     -1.30240537
 
 
 
