#p b3lyp 6-311+g(3df,2p) scf=tight nosymm

1,3-Pentadiene

0    1
    C     -1.95933356     -0.90760226      0.00000000
    C     -1.31484337      0.44839013      0.00000000
    C      0.00000000      0.73712321      0.00000000
    C      1.10843531     -0.20836106      0.00000000
    C      2.39961368      0.15623604      0.00000000
    H     -2.00978257      1.28811237      0.00000000
    H      0.28844608      1.78862251      0.00000000
    H      0.86664825     -1.26980236      0.00000000
    H      3.20122291     -0.57627616      0.00000000
    H      2.69616276      1.20309734      0.00000000
    H     -1.23508435     -1.72637849      0.00000000
    H     -2.60542174     -1.03104829      0.87992025
    H     -2.60542174     -1.03104829     -0.87992025
 
 
 
