#p b3lyp 6-311+g(3df,2p) scf=tight nosymm

13_c2h4

0    1
    C     -0.66347195      0.00000000      0.00000000
    C      0.66347195      0.00000000      0.00000000
    H     -1.23459891     -0.92251793      0.00000000
    H     -1.23459891      0.92251793      0.00000000
    H      1.23459891      0.92251793      0.00000000
    H      1.23459891     -0.92251793      0.00000000
 
 
 
