#p b3lyp 6-311+g(3df,2p) scf=tight nosymm

13r_4

0    1
    C      0.00000000      0.00000000     -0.61465696
    H      0.00000000      0.00000000     -1.67439288
    N      0.00000000      0.00000000      0.54494496
    O      0.00000000      0.00000000      1.74410487
 
 
 
