#p b3lyp 6-311+g(3df,2p) scf=tight nosymm

13r_2

0    1
    N      0.44531107      0.15160582      0.00000000
    N      1.57525922      0.20103025      0.00000000
    N     -0.78577603      0.28131268      0.00000000
    H     -1.23479425     -0.63394876      0.00000000
 
 
 
