#p b3lyp 6-311+g(3df,2p) scf=tight nosymm

13r_1

0    1
    N      0.00000000      0.00000000     -1.14542892
    N      0.00000000      0.00000000     -0.01934100
    O      0.00000000      0.00000000      1.16476992
 
 
 
