#p b3lyp 6-311+g(3df,2p) scf=tight nosymm

13r_8

0    1
    C      0.98114980      0.32463207      0.00000000
    H      1.05479855      1.40022531      0.00000000
    H      1.83571533     -0.33059051      0.00000000
    N     -0.21820441     -0.21868182      0.00000000
    H     -0.20108779     -1.24225722      0.00000000
    N     -1.37040682      0.39791531      0.00000000
    H     -2.08196466     -0.33124314      0.00000000
 
 
 
