#p b3lyp 6-311+g(3df,2p) scf=tight nosymm

13r_6

0    1
    C      0.96745818     -0.11636708      0.00000000
    N     -0.30997203     -0.08985969      0.00000000
    C     -1.52110719     -0.22012411      0.00000000
    H      1.50098101     -0.12812485      0.94177693
    H      1.50098101     -0.12812485     -0.94177693
    H     -2.13834099      0.68260057      0.00000000
 
 
 
