#p b3lyp 6-311+g(3df,2p) scf=tight nosymm

13r_5

0    1
    C     -1.13177822      0.15744931     -0.20511890
    H     -1.92265631      0.16979280      0.52564963
    N      0.05350137      0.12204223     -0.08218367
    N      1.28661142      0.24030426     -0.11445996
    H      1.71432174     -0.68958860     -0.12388710
 
 
 
