#p b3lyp 6-311+g(3df,2p) scf=tight nosymm

13r_7

0    1
    C     -0.62421615      0.28593983      0.00000000
    H     -0.68092141      1.36354298      0.00000000
    H     -1.48969196     -0.35847389      0.00000000
    N      0.55573798     -0.26924613      0.00000000
    H      0.55368997     -1.30176730      0.00000000
    O      1.68540156      0.28000450      0.00000000
 
 
 
