#p b3lyp 6-311+g(3df,2p) scf=tight nosymm

13ts_9a

0    1
    C      1.43362374     -0.07172339      0.68200092
    C      1.43362374     -0.07172339     -0.68200092
    C     -0.96582910      0.17183309     -1.19958143
    N     -1.34265886     -0.30734574      0.00000000
    C     -0.96582910      0.17183309      1.19958143
    H      1.47349698     -0.99649728      1.24415483
    H      1.65932547      0.82721100      1.24287654
    H      1.47349698     -0.99649728     -1.24415483
    H      1.65932547      0.82721100     -1.24287654
    H     -0.81622699      1.23706667     -1.28551365
    H     -1.29551931     -0.37599260     -2.07048087
    H     -1.63508270     -1.27644924      0.00000000
    H     -0.81622699      1.23706667      1.28551365
    H     -1.29551931     -0.37599260      2.07048087
 
 
 
