#p b3lyp 6-311+g(3df,2p) scf=tight nosymm

13ts_4a

0    1
    C      0.93577660      0.39537140      0.00000000
    C      0.85196595     -0.96841078      0.00000000
    O     -1.50506248     -1.24340619      0.00000000
    N     -1.72883326     -0.04590722      0.00000000
    C     -1.16713632      1.02284521      0.00000000
    H      1.15273836      0.92694979      0.92000018
    H      1.15273836      0.92694979     -0.92000018
    H      0.87762768     -1.53660408      0.92009464
    H      0.87762768     -1.53660408     -0.92009464
    H     -1.44744258      2.05881617      0.00000000
 
 
 
