#p b3lyp 6-311+g(3df,2p) scf=tight nosymm

13ts_7a

0    1
    C     -1.11892811     -0.39300691      0.06045901
    C     -1.06961551      0.98569172     -0.03334154
    O      1.04351903      1.35627297     -0.21429351
    N      1.47852939      0.22573744      0.22941622
    C      0.95782295     -0.89868100     -0.27213197
    H     -1.24594505     -0.86133034      1.03067145
    H     -1.48801718     -0.97414855     -0.77721277
    H     -1.09461969      1.61014781      0.84916015
    H     -1.26644916      1.48844285     -0.97025932
    H      1.75317155      0.20428366      1.21443317
    H      0.82089695     -0.92013128     -1.34318461
    H      1.22963484     -1.82327836      0.22628371
 
 
 
