#p b3lyp 6-311+g(3df,2p) scf=tight nosymm

Benzocyclobutane

0    1
    H      0.00000000      2.52622272     -0.73714721
    C      0.00000000      1.43915741     -0.71964220
    C      0.00000000     -1.43915741     -0.71964220
    C      0.00000000      0.69780720      0.45326613
    C      0.00000000      0.70108320     -1.91471754
    C      0.00000000     -0.70108320     -1.91471754
    C      0.00000000     -0.69780720      0.45326613
    C      0.00000000      0.79051122      1.97373556
    H      0.00000000      1.22778735     -2.86579681
    H      0.00000000     -1.22778735     -2.86579681
    H      0.88888125     -1.24737635      2.42354569
    H      0.00000000     -2.52622272     -0.73714721
    H     -0.88888125      1.24737635      2.42354569
    H      0.88888125      1.24737635      2.42354569
    H     -0.88888125     -1.24737635      2.42354569
    C      0.00000000     -0.79051122      1.97373556
 
 
 
