#p b3lyp 6-311+g(3df,2p) scf=tight nosymm

Cyclonona-1,4,7-triene

0    1
    H      2.52225571     -0.95612027      1.18167333
    C      1.83315552     -0.28467808      0.66929919
    C     -1.80619451      0.51419515      0.00000000
    C      0.90309726      0.51419515      1.56421044
    H     -0.23776907     -0.95612027      2.77517479
    H      0.62178718      1.45306041      1.07696631
    H      1.43414441      0.79014922      2.48401170
    C     -0.33694810     -0.28467808      1.92220854
    C     -1.49620842     -0.28467808      1.25290936
    H     -0.23776907     -0.95612027     -2.77517479
    C     -0.33694810     -0.28467808     -1.92220854
    H     -2.86828981      0.79014922      0.00000000
    C      0.90309726      0.51419515     -1.56421044
    H      2.52225571     -0.95612027     -1.18167333
    H      0.62178718      1.45306041     -1.07696631
    H      1.43414441      0.79014922     -2.48401170
    C      1.83315552     -0.28467808     -0.66929919
    H     -2.28448665     -0.95612027      1.59350145
    H     -1.24357435      1.45306041      0.00000000
    C     -1.49620842     -0.28467808     -1.25290936
    H     -2.28448665     -0.95612027     -1.59350145
 
 
 
