#p b3lyp 6-311+g(3df,2p) scf=tight nosymm

TS1

0    1
    H      1.88184953     -1.10092431     -0.43544012
    C      1.06484530     -0.62608218      0.11916603
    C     -1.06562030     -0.62527418     -0.11918903
    C      0.68376019      0.73288221     -0.08383102
    C     -0.68292719      0.73340321      0.08364702
    H     -1.88271953     -1.09937731      0.43591512
    H     -1.33868838      1.54212444      0.40331411
    H      0.87069925     -1.08642131      1.08064831
    H     -0.87198725     -1.08615331     -1.08050231
    H      1.34049538      1.54117244     -0.40269411
 
 
 
