#p b3lyp 6-311+g(3df,2p) scf=tight nosymm

TS11

0    1
    H     -0.60171517     -1.96106756     -1.56486744
    C     -0.60464917     -1.96404556     -0.47056913
    C      0.75546821     -1.98019256      0.17408405
    C      0.70702620     -1.23707435      1.32319938
    C     -0.51789315     -0.51497715      1.38381139
    C     -1.22789135     -0.73005621      0.17545905
    H     -1.17374733     -2.85421481     -0.15123604
    C      0.71977820      0.52087715     -1.28799337
    H      1.57194445     -2.61978974     -0.14210904
    H      1.50653643     -1.15499333      2.05329258
    H     -0.84295724      0.10231303      2.21186163
    C     -0.67408219      0.67438519     -1.07809331
    H     -2.30545365     -0.58477017      0.12898404
    H     -1.38329139      0.47680314     -1.87958653
    H      1.18509034     -0.09230503     -2.04948758
    C      1.41156640      1.29908137     -0.31775809
    C      0.51709115      2.01744857      0.42983712
    H      2.48533970      1.27182836     -0.15882905
    H      0.75714821      2.68797476      1.24743335
    C     -0.83971424      1.92177354     -0.21489806
    H     -1.68485448      1.89414254      0.47971114
    H     -0.99423828      2.79075879     -0.87764425
 
 
 
