$molecule
0    1
    @C      0.42047212      1.88176953      0.00000000
    @C     -0.42047212      1.99728657      1.26823136
    @C     -0.42047212      1.99728657     -1.26823136
    @H      1.19098634      2.66126175      0.00000000
    @H      0.95226127      0.92338526      0.00000000
    @H      0.19598506      1.91260554      2.16788361
    @H     -1.17929133      1.20933434      1.30485237
    @H     -0.93871827      2.96066284      1.30485237
    @H      0.19598506      1.91260554     -2.16788361
    @H     -1.17929133      1.20933434     -1.30485237
    @H     -0.93871827      2.96066284     -1.30485237
    C     -0.42047212     -1.88176953      0.00000000
    C      0.42047212     -1.99728657     -1.26823136
    C      0.42047212     -1.99728657      1.26823136
    H     -0.95226127     -0.92338526      0.00000000
    H     -1.19098634     -2.66126175      0.00000000
    H     -0.19598506     -1.91260554     -2.16788361
    H      0.93871827     -2.96066284     -1.30485237
    H      1.17929133     -1.20933434     -1.30485237
    H     -0.19598506     -1.91260554      2.16788361
    H      0.93871827     -2.96066284      1.30485237
    H      1.17929133     -1.20933434      1.30485237
$end
   
$rem
mem_static = 200
mem_total  = 7500
exchange = b3lyp
basis = G3Large
max_scf_cycles = 50
scf_convergence = 7
symmetry = false
xc_grid = 000075000302
$end
