$molecule
0    1
    C      0.17772651     -0.32067754     -0.45915648
    C     -0.72044971     -1.18571261      0.40407252
    N      1.54643637     -0.83978724     -0.39680639
    H      1.92265443     -0.70941758      0.53703355
    H      2.14821008     -0.33295088     -1.03647375
    H     -0.15600641     -0.36023335     -1.49509965
    C      0.13810444      1.12104390      0.00903546
    O     -0.02745976      1.48102327      1.15553810
    O      0.40054272      1.97990924     -1.00215507
    H      0.42600112      2.86623587     -0.60647829
    H     -0.66385819     -2.21093308      0.04246109
    H     -0.38581875     -1.16583017      1.44037546
    S     -2.46535253     -0.70638496      0.32343063
    H     -2.34073032      0.38371513      1.08422282
$end
   
$rem
mem_static = 200
mem_total  = 7500
exchange = b3lyp
basis = G3Large
max_scf_cycles = 50
scf_convergence = 7
symmetry = false
xc_grid = 000075000302
$end
