$molecule
0    1
    C     -0.16519361      0.52672593     -0.48956407
    C      1.15363492     -0.22074902     -0.67432905
    N      0.07488720      1.82361369      0.10244360
    H      0.53175176      1.68514769      0.99972407
    H     -0.80895694      2.27519753      0.30940066
    H     -0.59711024      0.66533343     -1.48628697
    C     -1.16140902     -0.32436904      0.28371719
    O     -1.79429100      0.03425877      1.24888935
    O     -1.28249574     -1.56350903     -0.25944653
    H     -1.95920893     -2.02062013      0.26533888
    H      1.01126446     -1.13860649     -1.23756812
    H      1.83770273      0.42828266     -1.21881829
    S      1.99244341     -0.59432259      0.89186601
    H      1.16698099     -1.57638339      1.26463326
$end
   
$rem
mem_static = 200
mem_total  = 7500
exchange = b3lyp
basis = G3Large
max_scf_cycles = 50
scf_convergence = 7
symmetry = false
xc_grid = 000075000302
$end
