$molecule
0    1
    C     -0.16519338     -0.06425842      0.28131013
    C      0.97639273      0.74252205     -0.32653271
    N     -0.33437746     -1.41662863     -0.24564366
    H     -0.17392194     -1.42243067     -1.24865660
    H      0.35783756     -2.03778768      0.15522623
    H      0.00459328     -0.15318512      1.35786334
    C     -1.48416594      0.70686513      0.14172090
    O     -1.55803504      1.91000086      0.22525752
    O     -2.55202172     -0.08038131     -0.04959785
    H     -2.18145037     -0.98921077     -0.10002960
    H      0.84954010      0.80025958     -1.40967270
    H      0.96969042      1.75895793      0.05789350
    S      2.59990504     -0.02304594     -0.06963387
    H      2.69120671      0.26832299      1.23049537
$end
   
$rem
mem_static = 200
mem_total  = 7500
exchange = b3lyp
basis = G3Large
max_scf_cycles = 50
scf_convergence = 7
symmetry = false
xc_grid = 000075000302
$end
