$molecule
0    1
    C     -0.23353097      0.01020956     -0.37465938
    C      0.92799607     -0.91435139     -0.03675124
    N     -0.17129488      1.34892944      0.20955728
    H      0.21657074      1.31549946      1.14701966
    H      0.42173179      1.95622147     -0.34167123
    H     -0.27367035      0.12984651     -1.45998416
    C     -1.55763183     -0.65832039      0.01941637
    O     -1.75126824     -1.84631246     -0.08413298
    O     -2.48920374      0.19938552      0.45924616
    H     -2.03865821      1.07223659      0.45990962
    H      1.00363806     -1.05775438      1.04198388
    H      0.75058088     -1.89128393     -0.48324649
    S      2.51434346     -0.34450897     -0.69798333
    H      2.68039722      0.68020297      0.14129584
$end
   
$rem
mem_static = 200
mem_total  = 7500
exchange = b3lyp
basis = G3Large
max_scf_cycles = 50
scf_convergence = 7
symmetry = false
xc_grid = 000075000302
$end
