%nproc=8
#P TPSSTPSS/6-311+g(3df,2p) scf=tight iop(3/76=0500005000,5/33=1)

12; geometry from JPCA, 2005, 109, 2012-2018

0 3
H         .000000     .000000    -.860287
O         .000000     .000000     .329024
H         .000000     .000000   -1.771905

 
 


