%nproc=4
%mem=1000mb
#P B3LYP/6-311++G(3df,2p) scf=tight nosymm

Ne-Ne at equlibium r=3.0910 Anstron with dE=-0.084 kcal/mol

0 1
Ne
Ne 1 3.091


