%nproc=4
%mem=1000mb
#P B3LYP/6-311++G(3df,2p) scf=tight nosymm

Ne-Ne at r=4.2 Anstron

0 1
Ne
Ne 1 4.2


