%nproc=8
%mem=6000MB
#P B3LYP/6-31G scf=tight nosymm polar=dipole

B3LYP-C2H2_14
Geom@mp2/6-31G

0 1
6   6.80585513   -0.11236162   -0.00548712
1   6.81617335   -1.20939022   -0.00639355
6   5.59390520   0.53524739   -0.00396843
1   5.57902572   1.63197493   -0.00303881
6   4.31269550   -0.14941048   -0.00353785
1   4.33298042   -1.24595463   -0.00446070
6   3.09774992   0.48589435   -0.00210105
1   3.06636365   1.58120282   -0.00115973
6   1.83019185   -0.23217934   -0.00172504
1   1.85309863   -1.32505142   -0.00287700
6   0.62561575   0.38408796   -0.00046666
1   0.44856949   1.45690799   0.00127374
7   -0.62561575   -0.38408796   0.00046666
8   -0.58516513   -1.66726308   -0.00528503
8   -1.71253103   0.30652782   0.00761012
6   8.09120790   0.56046157   -0.00590187
1   8.08406912   1.65756157   -0.00511257
6   9.30162118   -0.09306390   -0.00724549
1   9.30693016   -1.19019296   -0.00800171
6   10.58867857   0.57443887   -0.00754531
1   10.58497436   1.67170079   -0.00677116
6   11.79857048   -0.08158187   -0.00880991
1   11.80167687   -1.17876368   -0.00948704
6   13.08632417   0.58356567   -0.00885676
1   13.08404626   1.68090267   -0.00876167
6   14.29614832   -0.07338679   -0.00901336
1   14.29834014   -1.17061364   -0.00909745
6   15.58419562   0.59068859   -0.00889322
1   15.58251835   1.68806353   -0.00911615
6   16.79404834   -0.06662260   -0.00847482
1   16.79574760   -1.16389532   -0.00825789
6   18.08237485   0.59672350   -0.00829170
1   18.08116845   1.69411409   -0.00856764
6   19.29209264   -0.06100005   -0.00782929
1   19.29315341   -1.15832707   -0.00743433
6   20.58098347   0.60130558   -0.00743019
1   20.58062304   1.69869952   -0.00844517
6   21.79015866   -0.05736837   -0.00575575
1   21.78995708   -1.15476487   -0.00491574
6   23.08022573   0.60299377   -0.00554670
1   23.08156348   1.70038248   -0.00562376
6   24.28814454   -0.05767868   -0.00526122
1   24.28550077   -1.15517330   -0.00513811
6   25.58045108   0.59910140   -0.00513326
1   25.58496023   1.69646543   -0.00514545
6   26.78590685   -0.06532756   -0.00509067
1   26.77875730   -1.16296667   -0.00500137
6   28.08229519   0.58501352   -0.00481889
1   28.09252954   1.68228307   -0.00508831
6   29.28307853   -0.08627891   -0.00421510
1   29.26739891   -1.18415527   -0.00393645
6   30.58699416   0.55201990   -0.00375263
1   30.60835640   1.64884732   -0.00441853
6   31.77777796   -0.13374598   -0.00232243
1   31.74272307   -1.23158766   -0.00163396
6   33.09651398   0.47754687   -0.00189258
1   33.15445070   1.57187533   -0.00215400
6   34.25381943   -0.25625194   -0.00121998
1   34.20426377   -1.34791050   -0.00064890
7   35.54620976   0.25625194   0.00121998
1   36.34865506   -0.35121882   -0.00771658
1   35.71163535   1.25186000   -0.00375894


