%nproc=8
%mem=6000MB
#P B3LYP/6-31G scf=tight nosymm polar=dipole

B3LYP-C2H2_10
Geom@mp2/6-31G

0 1
6   6.80605705   0.00036395   0.08877851
1   6.81904307   0.00036395   1.18584766
6   5.59226051   0.00030334   -0.55539190
1   5.57417476   0.00030809   -1.65207066
6   4.31322267   0.00023766   0.13306925
1   4.33716493   0.00022721   1.22958767
6   3.09594479   0.00019587   -0.49784403
1   3.06056346   0.00020774   -1.59303297
6   1.83117102   0.00012788   0.22484068
1   1.85837644   0.00019860   1.31763522
6   0.62402442   0.00006859   -0.38650914
1   0.44267928   -0.00006889   -1.45859881
7   -0.62402442   -0.00006859   0.38650914
8   -0.57875761   0.00051692   1.66958123
8   -1.71380149   -0.00077894   -0.2996721
6   8.09002778   0.00042687   -0.58654210
1   8.08087487   0.00045307   -1.68362462
6   9.30150467   0.00043936   0.06493728
1   9.30801103   0.00041104   1.16215813
6   10.58833257   0.00048142   -0.60311964
1   10.58437197   0.00054888   -1.70037563
6   11.79809285   0.00044282   0.05288037
1   11.80025319   0.00037028   1.15020967
6   13.08730485   0.00047200   -0.60994441
1   13.08732267   0.00057565   -1.70727248
6   14.29518698   0.00037430   0.04994011
1   14.29324242   0.00026955   1.14738700
6   15.58729582   0.00039562   -0.60750757
1   15.59171886   0.00051850   -1.70484379
6   16.79237242   0.00024678   0.05716448
1   16.78498136   0.00014076   1.15476985
6   18.08894018   0.00027632   -0.59279745
1   18.09980767   0.00030652   -1.69004995
6   19.28912305   0.00026823   0.07936105
1   19.27260119   0.00023175   1.17720651
6   20.59346222   0.00028315   -0.55785398
1   20.61595388   0.00033294   -1.65465402
6   21.78344314   0.00028754   0.12923933
1   21.74707023   0.00021806   1.22702874
6   23.10277512   0.00024820   -0.48037022
1   23.16227969   0.00052484   -1.57460718
6   24.25897437   -0.00006214   0.25519132
1   24.20768882   -0.00033536   1.34676281
7   25.55194995   0.00006214   -0.25519132
1   26.35342391   -0.00113095   0.35368394
1   25.71907232   0.00005313   -1.25055814

