%nproc=8
%mem=6000MB
#P B3LYP/6-31G scf=tight nosymm polar=dipole

B3LYP-C2H2_8
Geom@mp2/6-31G

0 1
6   6.80583410   0.00001521   0.08196106
1   6.81806269   0.00001521   1.17914791
6   5.59201741   0.00001491   -0.56222932
1   5.57378521   0.00001490   -1.65889923
6   4.31336124   0.00001158   0.12654971
1   4.33812177   0.00001159   1.22312386
6   3.09522156   0.00000728   -0.50289957
1   3.05845322   0.00000727   -1.59804281
6   1.83165852   0.00000396   0.22142945
1   1.86070204   0.00001496   1.31420964
6   0.62320125   0.00001766   -0.38757847
1   0.43988369   -0.00001739   -1.45931400
7   -0.62320125   -0.00001766   0.38757847
8   -0.57588181   0.00021835   1.67065479
8   -1.71442303   -0.00027293   -0.29642367
6   8.09069054   0.00001653   -0.59157412
1   8.08328445   0.00002153   -1.68865372
6   9.30083619   0.00001684   0.06214376
1   9.30418763   0.00001083   1.15954556
6   10.59050977   0.00002016   -0.60090846
1   10.59115251   0.00003416   -1.69813776
6   11.79678385   0.00000446   0.06067606
1   11.79202088  -0.00000554   1.15826730
6   13.09201720   0.00001179   -0.59201848
1   13.10117773   0.00002880   -1.68922371
6   14.29272055   0.00002409   0.07886370
1   14.27721374   0.00000008   1.17670770
6   15.59641121   0.00001442   -0.55931418
1   15.61848641   0.00006443   -1.65608332
6   16.78642545   -0.00001628   0.12767912
1   16.74999262   -0.00005230   1.22545833
6   18.10555831   -0.00008095   -0.48167407
1   18.16555273   0.00008307   -1.57585365
6   19.26134340   -0.00022166   0.25466677
1   19.20921986   -0.00035068   1.34618946
7   20.55432532   0.00022166   -0.25466677
1   21.35535822   -0.00203314   0.35487381
1   20.72231178   -0.00048929   -1.24993474


