%nproc=8
%mem=6000MB
#P B3LYP/6-31G scf=tight nosymm polar=dipole

B3LYP-PNA
Geom@mp2/6-31G

0 1
6       0.000000    2.110409    0.000000
6      -1.223254    1.384408    0.000000
6      -1.227734   -0.019919    0.000000
6       0.000000   -0.706676    0.000000
6       1.227734   -0.019919    0.000000
6       1.223254    1.384408    0.000000
7       0.000000    3.502199    0.000000
1      -2.173184    1.923708    0.000000
1      -2.163286   -0.575755    0.000000
7       0.000000   -2.187052    0.000000
1       2.163287   -0.575754    0.000000
1       2.173185    1.923709    0.000000
1       0.863289    4.023934    0.000000
1      -0.863290    4.023933    0.000000
8       1.131463   -2.796629    0.000000
8      -1.131463   -2.796629    0.000000

