$molecule
0 1
 S                  0.00000000    0.00000000    0.19140400
 O                 -1.27310600    0.00000000    0.91910300
 O                  1.27310600    0.00000000    0.91910300
 C                  0.00000000    1.42425600   -0.92350000
 C                  0.00000000   -1.42425600   -0.92350000
 H                  0.00000000    2.30221800   -0.27752100
 H                  0.00000000   -2.30221800   -0.27752100
 H                  0.90272700    1.40420900   -1.53276900
 H                 -0.90272700    1.40420900   -1.53276900
 H                  0.90272700   -1.40420900   -1.53276900
 H                 -0.90272700   -1.40420900   -1.53276900  
$end
   
$rem
exchange = b3lyp
basis = 6-311+g(3df,2p)
3333 = 1 ! do the MP2 calculation using KS-orbitals
$end
