$molecule
0 1
 C                  0.00000000    0.49787900    0.00000000
 O                 -1.17598500    0.76687200    0.00000000
 O                  0.47066200   -0.77024200    0.00000000
 C                  1.13163500    1.49307300    0.00000000
 C                 -0.52183000   -1.81293900    0.00000000
 H                  0.72684600    2.50284000    0.00000000
 H                  1.76025200    1.34284000    0.88056500
 H                  1.76025200    1.34284000   -0.88056500
 H                  0.03722800   -2.74606900    0.00000000
 H                 -1.15040900   -1.74178500    0.88875700
 H                 -1.15040900   -1.74178500   -0.88875700  
$end
   
$rem
exchange = b3lyp
basis = 6-311+g(3df,2p)
3333 = 1 ! do the MP2 calculation using KS-orbitals
$end
