$molecule
0 1
 H                  0.00000000    0.00000000    2.12751500
 N                  0.00000000    0.00000000    1.12143900
 C                  0.00000000    1.12501200    0.33121800
 C                  0.00000000   -1.12501200    0.33121800
 C                  0.00000000    0.71239100   -0.98231400
 C                  0.00000000   -0.71239100   -0.98231400
 H                  0.00000000    2.11237700    0.76339100
 H                  0.00000000   -2.11237700    0.76339100
 H                  0.00000000    1.35935800   -1.84561100
 H                  0.00000000   -1.35935800   -1.84561100 
$end
   
$rem
exchange = b3lyp
basis = 6-311+g(3df,2p)
3333 = 1 ! do the MP2 calculation using KS-orbitals
$end
