$molecule
0 1
 N                  0.00000000    0.00000000    0.36722200
 C                  0.00000000    1.39112300   -0.05990700
 C                  1.20474800   -0.69556200   -0.05990700
 C                 -1.20474800   -0.69556200   -0.05990700
 H                  0.00000000    1.50309500   -1.16152100
 H                  0.88457900    1.89933100    0.33205500
 H                 -0.88457900    1.89933100    0.33205500
 H                  1.30171900   -0.75154800   -1.16152100
 H                  1.20257900   -1.71573300    0.33205500
 H                  2.08715800   -0.18359800    0.33205500
 H                 -1.30171900   -0.75154800   -1.16152100
 H                 -2.08715800   -0.18359800    0.33205500
 H                 -1.20257900   -1.71573300    0.33205500 
$end
   
$rem
exchange = b3lyp
basis = 6-311+g(3df,2p)
3333 = 1 ! do the MP2 calculation using KS-orbitals
$end
