$molecule
0 2
 N                  0.00000000    0.00000000    0.32194500
 O                  0.00000000    1.09994600   -0.14085100
 O                  0.00000000   -1.09994600   -0.14085100 
$end
   
$rem
exchange = b3lyp
basis = 6-311+g(3df,2p)
3333 = 1 ! do the MP2 calculation using KS-orbitals
$end
