$molecule
0 1
 C                 -0.93463000   -0.09371000    0.00000000
 O                 -0.72699300   -1.27687900    0.00000000
 O                  0.00000000    0.86689300    0.00000000
 H                 -1.92873800    0.37339300    0.00000000
 C                  1.37184500    0.41759800    0.00000000
 H                  1.97332000    1.32324300    0.00000000
 H                  1.57403600   -0.18003800    0.88958200
 H                  1.57403600   -0.18003800   -0.88958200 
$end
   
$rem
exchange = b3lyp
basis = 6-311+g(3df,2p)
3333 = 1 ! do the MP2 calculation using KS-orbitals
$end
