$molecule
0 1
 H                  0.56271600    1.15356500    2.02487500
 H                  0.56271600    1.15356500   -2.02487500
 C                  0.00000000   -0.76147400    1.17503600
 C                  0.00000000   -0.76147400   -1.17503600
 H                 -0.56271600   -1.15356500   -2.02487500
 C                  0.00000000    0.76147400   -1.17503600
 C                  0.00000000    0.76147400    1.17503600
 H                  1.03367000   -1.13381300    1.23089400
 H                  1.03367000   -1.13381300   -1.23089400
 O                 -0.63150200   -1.26498700    0.00000000
 H                 -1.03367000    1.13381300   -1.23089400
 H                 -1.03367000    1.13381300    1.23089400
 O                  0.63150200    1.26498700    0.00000000
 H                 -0.56271600   -1.15356500    2.02487500  
$end
   
$rem
exchange = b3lyp
basis = 6-311+g(3df,2p)
3333 = 1 ! do the MP2 calculation using KS-orbitals
$end
