$molecule
0 2
 C                 -0.00952400   -0.69361800    0.00000000
 C                 -0.00952400    0.79401200    0.00000000
 H                  1.01428400   -1.10311100    0.00000000
 H                 -0.50467100   -1.10123600    0.88660300
 H                 -0.50467100   -1.10123600   -0.88660300
 H                  0.05467100    1.35160800    0.92631300
 H                  0.05467100    1.35160800   -0.92631300 
$end
   
$rem
exchange = b3lyp
basis = 6-311+g(3df,2p)
3333 = 1 ! do the MP2 calculation using KS-orbitals
$end
