$molecule
0 1
 C                  1.31815800    0.98329500    0.00000000
 C                  0.00000000    0.77063800    0.00000000
 C                 -0.57876400   -0.53448300    0.00000000
 H                  2.02817100    0.16514000    0.00000000
 H                  1.71345100    1.99147400    0.00000000
 H                 -0.70311900    1.59720700    0.00000000
 N                 -1.06783800   -1.58150400    0.00000000 
$end
   
$rem
exchange = b3lyp
basis = 6-311+g(3df,2p)
3333 = 1 ! do the MP2 calculation using KS-orbitals
$end
