$molecule
0 1
 C                 -0.54619100   -0.68676700    1.25889500
 C                 -0.01118900    0.01111100    0.00000000
 C                 -0.54619100   -0.68676700   -1.25889500
 C                  1.53182300   -0.01979000    0.00000000
 N                 -0.54619100    1.38921600    0.00000000
 H                  1.91462300   -1.04558500    0.00000000
 H                  1.92922300    0.48708400    0.88521000
 H                  1.92922300    0.48708400   -0.88521000
 H                 -1.63836700   -0.67429300   -1.26599900
 H                 -0.20639700   -1.72487600   -1.30660200
 H                 -0.19567500   -0.17961800   -2.16415700
 H                 -0.20639700   -1.72487600    1.30660200
 H                 -1.63836700   -0.67429300    1.26599900
 H                 -0.19567500   -0.17961800    2.16415700
 H                 -0.21918300    1.89887500    0.81646600
 H                 -0.21918300    1.89887500   -0.81646600  
$end
   
$rem
exchange = b3lyp
basis = 6-311+g(3df,2p)
3333 = 1 ! do the MP2 calculation using KS-orbitals
$end
