$molecule
0 1
 C                 -0.00570500    0.76628500    0.00000000
 C                  0.00570500   -0.76628500    0.00000000
 C                 -1.41363700    1.37300200    0.00000000
 C                  1.41363700   -1.37300200    0.00000000
 C                 -1.41363700    2.90439900    0.00000000
 C                  1.41363700   -2.90439900    0.00000000
 H                  0.54457900    1.13251400    0.87665600
 H                  0.54457900    1.13251400   -0.87665600
 H                 -0.54457900   -1.13251400    0.87665600
 H                 -0.54457900   -1.13251400   -0.87665600
 H                 -1.96336200    1.00776900    0.87601900
 H                 -1.96336200    1.00776900   -0.87601900
 H                  1.96336200   -1.00776900    0.87601900
 H                  1.96336200   -1.00776900   -0.87601900
 H                 -0.90089100    3.29949800   -0.88268200
 H                 -0.90089100    3.29949800    0.88268200
 H                  0.90089100   -3.29949800   -0.88268200
 H                  0.90089100   -3.29949800    0.88268200
 H                 -2.43081200    3.30570300    0.00000000
 H                  2.43081200   -3.30570300    0.00000000  
$end
   
$rem
exchange = b3lyp
basis = 6-311+g(3df,2p)
3333 = 1 ! do the MP2 calculation using KS-orbitals
$end
