$molecule
0 1
 S                  0.00000000    0.00000000    1.19805700
 C                  0.00000000    1.24136400   -0.01159600
 C                  0.00000000   -1.24136400   -0.01159600
 C                  0.00000000    0.71392100   -1.27145300
 C                  0.00000000   -0.71392100   -1.27145300
 H                  0.00000000    2.27952700    0.28259600
 H                  0.00000000   -2.27952700    0.28259600
 H                  0.00000000    1.31859400   -2.16875900
 H                  0.00000000   -1.31859400   -2.16875900 
$end
   
$rem
exchange = b3lyp
basis = 6-311+g(3df,2p)
3333 = 1 ! do the MP2 calculation using KS-orbitals
$end
