$molecule
0 2
 C                  0.00914900    0.53614000    0.00000000
 C                  0.00914900   -0.19780200    1.29721700
 C                  0.00914900   -0.19780200   -1.29721700
 H                 -0.18431900    1.60333300    0.00000000
 H                  0.18861900    0.46762300    2.14513200
 H                  0.18861900    0.46762300   -2.14513200
 H                 -0.95264600   -0.70564400    1.48336500
 H                  0.77384800   -0.98525200    1.31481700
 H                 -0.95264600   -0.70564400   -1.48336500
 H                  0.77384800   -0.98525200   -1.31481700 
$end
   
$rem
exchange = b3lyp
basis = 6-311+g(3df,2p)
3333 = 1 ! do the MP2 calculation using KS-orbitals
$end
