$molecule
0 2
 Si                 0.00000000    0.00000000    0.07984200
 H                  0.00000000    1.41533000   -0.37259400
 H                  1.22571100   -0.70766500   -0.37259400
 H                 -1.22571100   -0.70766500   -0.37259400 
$end
   
$rem
exchange = b3lyp
basis = 6-311+g(3df,2p)
3333 = 1 ! do the MP2 calculation using KS-orbitals
$end
