$molecule
0 1
 H                  0.00000000    2.06448200    1.25478300
 N                  0.00000000    0.00000000   -1.40422800
 N                  0.00000000    0.00000000    1.40422800
 C                  0.00000000    1.13252000   -0.69739400
 C                  0.00000000   -1.13252000   -0.69739400
 C                  0.00000000   -1.13252000    0.69739400
 C                  0.00000000    1.13252000    0.69739400
 H                  0.00000000    2.06448200   -1.25478300
 H                  0.00000000   -2.06448200   -1.25478300
 H                  0.00000000   -2.06448200    1.25478300  
$end
   
$rem
exchange = b3lyp
basis = 6-311+g(3df,2p)
3333 = 1 ! do the MP2 calculation using KS-orbitals
$end
