$molecule
0 3
 Si                 0.00000000    0.00000000    0.09483000
 H                  0.00000000    1.27945800   -0.66381200
 H                  0.00000000   -1.27945800   -0.66381200 
$end
   
$rem
exchange = b3lyp
basis = 6-311+g(3df,2p)
3333 = 1 ! do the MP2 calculation using KS-orbitals
$end
