$molecule
0 1
 H                 -1.11577100    2.40585400    0.00000000
 N                  0.02576000    0.62513000    0.00000000
 C                  0.01784400   -0.17446300    1.11890200
 H                  0.42457800    2.47466800    0.88442900
 H                  0.42457800    2.47466800   -0.88442900
 C                  0.01784400   -0.17446300   -1.11890200
 C                 -0.07274400    2.07394200    0.00000000
 C                  0.01784400   -1.49106800    0.71121100
 H                  0.01768300    0.25851800    2.10672400
 C                  0.01784400   -1.49106800   -0.71121100
 H                  0.01768300    0.25851800   -2.10672400
 H                  0.02956500   -2.35270500    1.36044400
 H                  0.02956500   -2.35270500   -1.36044400  
$end
   
$rem
exchange = b3lyp
basis = 6-311+g(3df,2p)
3333 = 1 ! do the MP2 calculation using KS-orbitals
$end
