$molecule
0 1
 H                  1.94529600    0.27965600    0.88004900
 C                  1.49021000    0.74388800    0.00000000
 H                  1.68309800    1.81610200    0.00000000
 C                  0.00000000    0.49530800    0.00000000
 H                  1.94529600    0.27965600   -0.88004900
 O                 -0.82458800    1.38464700    0.00000000
 C                 -0.40840300   -0.90482400    0.00000000
 C                 -0.73729200   -2.06290000    0.00000000
 H                 -1.04407500   -3.08142000    0.00000000  
$end
   
$rem
exchange = b3lyp
basis = 6-311+g(3df,2p)
3333 = 1 ! do the MP2 calculation using KS-orbitals
$end
