$molecule
0 1
 C                 -0.02636700   -0.22176300    1.21860700
 N                 -0.02636700    0.57812100    0.00000000
 C                 -0.02636700   -0.22176300   -1.21860700
 H                  0.80540400   -0.94577000    1.27961400
 H                  0.02347200    0.43453800    2.09048600
 H                 -0.96162500   -0.78645100    1.28211400
 H                  0.76647400    1.20967500    0.00000000
 H                  0.80540400   -0.94577000   -1.27961400
 H                  0.02347200    0.43453800   -2.09048600
 H                 -0.96162500   -0.78645100   -1.28211400 
$end
   
$rem
exchange = b3lyp
basis = 6-311+g(3df,2p)
3333 = 1 ! do the MP2 calculation using KS-orbitals
$end
