$molecule
0 1
 H                  2.82004800   -0.98743500    0.87736000
 C                  2.38154100   -0.49915000    0.00000000
 H                  2.68141100    0.55017000    0.00000000
 C                  0.89659500   -0.65697900    0.00000000
 H                  2.82004800   -0.98743500   -0.87736000
 C                  0.00000000    0.33853600    0.00000000
 H                  0.52133900   -1.68059400    0.00000000
 H                  0.29764400    1.38352000    0.00000000
 C                 -1.44107200    0.06107200    0.00000000
 O                 -2.30687800    0.90993500    0.00000000
 H                 -1.70785200   -1.01857800    0.00000000  
$end
   
$rem
exchange = b3lyp
basis = 6-311+g(3df,2p)
3333 = 1 ! do the MP2 calculation using KS-orbitals
$end
