$molecule
0 1
 H                  0.47253600   -0.67409900    2.07241000
 H                  0.40591400   -2.11436400    0.00000000
 C                 -0.09960000   -0.46710000   -1.16491600
 C                 -0.09960000    1.02557400   -0.77827200
 C                 -0.09960000    1.02557400    0.77827200
 C                 -0.09960000   -0.46710000    1.16491600
 N                  0.52017600   -1.10674100    0.00000000
 H                 -1.13597400   -0.81000300   -1.33157500
 H                  0.47253600   -0.67409900   -2.07241000
 H                  0.79774900    1.51649300   -1.15953600
 H                 -0.96268500    1.54754100   -1.19633800
 H                 -0.96268500    1.54754100    1.19633800
 H                  0.79774900    1.51649300    1.15953600
 H                 -1.13597400   -0.81000300    1.33157500  
$end
   
$rem
exchange = b3lyp
basis = 6-311+g(3df,2p)
3333 = 1 ! do the MP2 calculation using KS-orbitals
$end
