$molecule
0 1
 C                  1.32885800    0.00035200   -0.00292500
 N                 -0.17481300    0.00000300   -0.01052200
 O                 -0.73262700    1.08597300    0.00277900
 O                 -0.73201700   -1.08628500    0.00277300
 H                  1.63351600   -0.00701800    1.04363900
 H                  1.66717800   -0.90179100   -0.50447300
 H                  1.66699800    0.90917000   -0.49237100 
$end
   
$rem
exchange = b3lyp
basis = 6-311+g(3df,2p)
3333 = 1 ! do the MP2 calculation using KS-orbitals
$end
