$molecule
0 1
 S                  0.00000000    0.00000000    0.00000000
 O                  0.00000000    1.44674900    0.00000000
 O                  1.25292100   -0.72337400    0.00000000
 O                 -1.25292100   -0.72337400    0.00000000  
$end
   
$rem
exchange = b3lyp
basis = 6-311+g(3df,2p)
3333 = 1 ! do the MP2 calculation using KS-orbitals
$end
