$molecule
0 1
 S                  0.45547700    0.87731800    0.75324600
 S                 -0.45547700   -0.87731800    0.75324600
 Cl                -0.45547700    2.14658100   -0.70893800
 Cl                 0.45547700   -2.14658100   -0.70893800  
$end
   
$rem
exchange = b3lyp
basis = 6-311+g(3df,2p)
3333 = 1 ! do the MP2 calculation using KS-orbitals
$end
