$molecule
0 1
 C                  0.00000000    0.00000000    1.36544300
 C                  0.00000000    1.21482000    0.69687400
 C                  0.00000000    1.21482000   -0.69687400
 C                  0.00000000    0.00000000   -1.36544300
 C                  0.00000000   -1.21482000   -0.69687400
 C                  0.00000000   -1.21482000    0.69687400
 F                  0.00000000    0.00000000    2.72088400
 F                  0.00000000    0.00000000   -2.72088400
 H                  0.00000000    2.13971600    1.25954200
 H                  0.00000000    2.13971600   -1.25954200
 H                  0.00000000   -2.13971600   -1.25954200
 H                  0.00000000   -2.13971600    1.25954200  
$end
   
$rem
exchange = b3lyp
basis = 6-311+g(3df,2p)
3333 = 1 ! do the MP2 calculation using KS-orbitals
$end
