$molecule
0 1
 C                  0.00000000    0.00000000    0.76532100
 C                  0.00000000    0.00000000   -0.76532100
 H                  0.00000000    1.01855900    1.16372000
 H                 -0.88209800   -0.50928000    1.16372000
 H                  0.88209800   -0.50928000    1.16372000
 H                  0.00000000   -1.01855900   -1.16372000
 H                 -0.88209800    0.50928000   -1.16372000
 H                  0.88209800    0.50928000   -1.16372000 
$end
   
$rem
exchange = b3lyp
basis = 6-311+g(3df,2p)
3333 = 1 ! do the MP2 calculation using KS-orbitals
$end
