$molecule
0 2
 C                  0.00000000    0.00000000    1.39569700
 C                  0.00000000    0.00000000   -1.32250900
 C                  0.00000000    1.22446700    0.77119900
 C                  0.00000000   -1.22446700    0.77119900
 C                  0.00000000    1.21247500   -0.63161600
 C                  0.00000000   -1.21247500   -0.63161600
 H                  0.00000000    0.00000000   -2.40656000
 H                  0.00000000    2.15834000    1.32228000
 H                  0.00000000   -2.15834000    1.32228000
 H                  0.00000000    2.15105200   -1.17606500
 H                  0.00000000   -2.15105200   -1.17606500  
$end
   
$rem
exchange = b3lyp
basis = 6-311+g(3df,2p)
3333 = 1 ! do the MP2 calculation using KS-orbitals
$end
