$molecule
0 1
 C                  0.00000000    0.00000000    0.66446000
 C                  0.00000000    0.00000000   -0.66446000
 H                  0.00000000    0.92260600    1.23551600
 H                  0.00000000   -0.92260600    1.23551600
 H                  0.00000000    0.92260600   -1.23551600
 H                  0.00000000   -0.92260600   -1.23551600 
$end
   
$rem
exchange = b3lyp
basis = 6-311+g(3df,2p)
3333 = 1 ! do the MP2 calculation using KS-orbitals
$end
