$molecule
0 1
 F                  0.00000000    2.35050100   -0.98483100
 C                  0.00000000    1.18204500   -0.30368700
 C                  0.00000000   -1.21352100    1.08276400
 C                  0.00000000    0.00000000   -1.02930900
 C                  0.00000000    1.21352100    1.08276400
 C                  0.00000000    0.00000000    1.76873900
 C                  0.00000000   -1.18204500   -0.30368700
 H                  0.00000000    0.00000000   -2.11095900
 H                  0.00000000    2.16395300    1.60015000
 H                  0.00000000    0.00000000    2.85210300
 F                  0.00000000   -2.35050100   -0.98483100
 H                  0.00000000   -2.16395300    1.60015000  
$end
   
$rem
exchange = b3lyp
basis = 6-311+g(3df,2p)
3333 = 1 ! do the MP2 calculation using KS-orbitals
$end
