$molecule
0 1
 H                  0.14515100    3.44557600   -0.51583900
 C                  0.17681900    2.55497200    0.11661700
 H                  1.13232900    2.54376500    0.64540800
 C                  0.00000000    1.29352900   -0.72422200
 H                 -0.60933700    2.63709300    0.86914000
 H                  0.77758900    1.21600500   -1.49419300
 H                 -0.94731900    1.32481800   -1.27898900
 C                  0.00000000    0.00000000    0.08172100
 O                  0.00000000    0.00000000    1.29373500
 C                  0.00000000   -1.29352900   -0.72422200
 C                 -0.17681900   -2.55497200    0.11661700
 H                  0.94731900   -1.32481800   -1.27898900
 H                 -0.77758900   -1.21600500   -1.49419300
 H                 -1.13232900   -2.54376500    0.64540800
 H                  0.60933700   -2.63709300    0.86914000
 H                 -0.14515100   -3.44557600   -0.51583900  
$end
   
$rem
exchange = b3lyp
basis = 6-311+g(3df,2p)
3333 = 1 ! do the MP2 calculation using KS-orbitals
$end
