$molecule
0 1
 P                  0.00000000    0.00000000    0.00000000
 F                  0.00000000    0.00000000    1.60417900
 F                  0.00000000    1.57071400    0.00000000
 F                  0.00000000    0.00000000   -1.60417900
 F                  1.36027900   -0.78535700    0.00000000
 F                 -1.36027900   -0.78535700    0.00000000  
$end
   
$rem
exchange = b3lyp
basis = 6-311+g(3df,2p)
3333 = 1 ! do the MP2 calculation using KS-orbitals
$end
