$molecule
0 1
 P                  0.00000000    0.00000000    0.00000000
 Cl                 0.00000000    0.00000000    2.18912200
 Cl                 0.00000000    2.07174800    0.00000000
 Cl                 0.00000000    0.00000000   -2.18912200
 Cl                 1.79418600   -1.03587400    0.00000000
 Cl                -1.79418600   -1.03587400    0.00000000  
$end
   
$rem
exchange = b3lyp
basis = 6-311+g(3df,2p)
3333 = 1 ! do the MP2 calculation using KS-orbitals
$end
