$molecule
0 3
 O                  0.00000000    0.00000000   -1.00682000
 S                  0.00000000    0.00000000    0.50341000 
$end
   
$rem
exchange = b3lyp
basis = 6-311+g(3df,2p)
3333 = 1 ! do the MP2 calculation using KS-orbitals
$end
