$molecule
0 2
 Cl                 0.00000000    0.00000000    0.51732400
 O                  0.00000000    0.00000000   -1.09931300 
$end
   
$rem
exchange = b3lyp
basis = 6-311+g(3df,2p)
3333 = 1 ! do the MP2 calculation using KS-orbitals
$end
