$molecule
0 1
 P                  0.00000000    0.00000000    0.94865800
 P                  0.00000000    0.00000000   -0.94865800 
$end
   
$rem
exchange = b3lyp
basis = 6-311+g(3df,2p)
3333 = 1 ! do the MP2 calculation using KS-orbitals
$end
