$molecule
0 1
 C                 -0.04806100    1.16408300    0.00000000
 S                 -0.04806100   -0.67101800    0.00000000
 H                  1.29050800   -0.83610100    0.00000000
 H                 -1.09502000    1.46625700    0.00000000
 H                  0.43093300    1.56081800    0.89426800
 H                  0.43093300    1.56081800   -0.89426800 
$end
   
$rem
exchange = b3lyp
basis = 6-311+g(3df,2p)
3333 = 1 ! do the MP2 calculation using KS-orbitals
$end
