$molecule
0 1
 C                  0.00000000    0.00000000    0.00000000
 F                  0.76693100    0.76693100    0.76693100
 F                 -0.76693100   -0.76693100    0.76693100
 F                 -0.76693100    0.76693100   -0.76693100
 F                  0.76693100   -0.76693100   -0.76693100 
$end
   
$rem
exchange = b3lyp
basis = 6-311+g(3df,2p)
3333 = 1 ! do the MP2 calculation using KS-orbitals
$end
