$molecule
0 1
 C                  0.00000000    0.00000000    0.00000000
 C                  0.00000000    0.00000000    1.30340000
 C                  0.00000000    0.00000000   -1.30340000
 H                  0.00000000    0.92742300    1.86754100
 H                  0.00000000   -0.92742300    1.86754100
 H                  0.92742300    0.00000000   -1.86754100
 H                 -0.92742300    0.00000000   -1.86754100 
$end
   
$rem
exchange = b3lyp
basis = 6-311+g(3df,2p)
3333 = 1 ! do the MP2 calculation using KS-orbitals
$end
