$molecule
0 1
 F                  0.00000000    1.11001700   -0.26609300
 O                  0.00000000    0.00000000    0.59870900
 F                  0.00000000   -1.11001700   -0.26609300 
$end
   
$rem
exchange = b3lyp
basis = 6-311+g(3df,2p)
3333 = 1 ! do the MP2 calculation using KS-orbitals
$end
