$molecule
0 1
 O                  0.00000000    1.07934500   -0.21423600
 O                  0.00000000    0.00000000    0.42847200
 O                  0.00000000   -1.07934500   -0.21423600 
$end
   
$rem
exchange = b3lyp
basis = 6-311+g(3df,2p)
3333 = 1 ! do the MP2 calculation using KS-orbitals
$end
