$molecule
0 1
 C                  0.60128800    1.74911800    0.00000000
 C                  0.60128800    0.41077600    0.00000000
 C                 -0.60128800   -0.41077600    0.00000000
 C                 -0.60128800   -1.74911800    0.00000000
 H                  1.52323500    2.31803800    0.00000000
 H                 -0.32473200    2.31580700    0.00000000
 H                  1.54993200   -0.12256900    0.00000000
 H                 -1.54993200    0.12256900    0.00000000
 H                  0.32473200   -2.31580700    0.00000000
 H                 -1.52323500   -2.31803800    0.00000000 
$end
   
$rem
exchange = b3lyp
basis = 6-311+g(3df,2p)
3333 = 1 ! do the MP2 calculation using KS-orbitals
$end
