$molecule
0 1
 C                  0.00000000    1.08498300    0.12344700
 C                  0.00000000   -1.08498300    0.12344700
 C                 -1.08498300    0.00000000   -0.12344700
 C                  1.08498300    0.00000000   -0.12344700
 H                  0.00000000    1.96172400   -0.52759600
 H                  0.00000000    1.42488000    1.16242700
 H                  0.00000000   -1.96172400   -0.52759600
 H                  0.00000000   -1.42488000    1.16242700
 H                 -1.96172400    0.00000000    0.52759600
 H                 -1.42488000    0.00000000   -1.16242700
 H                  1.96172400    0.00000000    0.52759600
 H                  1.42488000    0.00000000   -1.16242700 
$end
   
$rem
exchange = b3lyp
basis = 6-311+g(3df,2p)
3333 = 1 ! do the MP2 calculation using KS-orbitals
$end
