$molecule
0 1
 C                  1.29186300    0.15133500    0.00000000
 C                  0.00000000    0.47271600    0.00000000
 H                  1.62124000   -0.88380500    0.00000000
 H                  2.06653600    0.90986300    0.00000000
 H                 -0.27739600    1.52574600    0.00000000
 C                 -1.13785600   -0.50513000    0.00000000
 H                 -0.78046200   -1.53765800    0.00000000
 H                 -1.77698000   -0.36383500    0.87863600
 H                 -1.77698000   -0.36383500   -0.87863600 
$end
   
$rem
exchange = b3lyp
basis = 6-311+g(3df,2p)
3333 = 1 ! do the MP2 calculation using KS-orbitals
$end
