$molecule
0 2
 N                  0.00000000    0.00000000    0.14235500
 H                  0.00000000    0.80635200   -0.49824300
 H                  0.00000000   -0.80635200   -0.49824300 
$end
   
$rem
exchange = b3lyp
basis = 6-311+g(3df,2p)
3333 = 1 ! do the MP2 calculation using KS-orbitals
$end
