$molecule
0 1
 C                  0.00000000    0.00000000   -1.17595000
 C                  0.00000000    0.00000000    0.28044200
 N                  0.00000000    0.00000000    1.43304500
 H                  0.00000000    1.02475500   -1.55275500
 H                  0.88746300   -0.51237700   -1.55275500
 H                 -0.88746300   -0.51237700   -1.55275500 
$end
   
$rem
exchange = b3lyp
basis = 6-311+g(3df,2p)
3333 = 1 ! do the MP2 calculation using KS-orbitals
$end
