%nproc=8
#P TPSSTPSS/6-311+g(3df,2p) scf=tight iop(3/76=0500005000,5/33=1)
extraoverlay

8/10=90/1;9/16=-3/6;
3/5=4,6=6,7=216,11=2,16=1,25=1,30=1,74=203/1,2,3;
5/5=2,6=-2,32=1,33=1,38=5/2;

13; geometry from JPCA, 2005, 109, 2012-2018

0 1 
      C             -0.632074    0.000001   -0.000000
      F              0.749117    0.000002   -0.000002
      H             -0.983182   -0.338489    0.972625
      H             -0.983222    1.011553   -0.193172
      H             -0.983203   -0.673084   -0.779437



