%nproc=8
#P TPSSTPSS/6-311+g(3df,2p) scf=tight iop(3/76=0500005000,5/33=1)
extraoverlay

8/10=90/1;9/16=-3/6;
3/5=4,6=6,7=216,11=2,16=1,25=1,30=1,74=203/1,2,3;
5/5=2,6=-2,32=1,33=1,38=5/2;

22; geometry from JPCA, 2005, 109, 2012-2018

-1 1
      C              -1.297997    -.389518    -.000034
      O               -.477223     .728021     .000054
      H              -2.351922    -.080232    -.008639
      H              -1.140853   -1.035821    -.878101
      H              -1.153178   -1.027513     .886359
      H                .510580     .371160     .000243
      F               1.749016    -.190517    -.000010



