$molecule
0    2
    C     -0.56787594      0.00005100     -0.21895818
    C      0.75114059     -0.00003600      0.04193200
    H     -1.49388314     -0.00048800      1.53176694
    H     -1.10169403      0.92065193     -0.40862641
    H     -1.10202212     -0.92023388     -0.40911008
    H      1.29913005     -0.92234529      0.17376327
    H      1.29889721      0.92232413      0.17436283
$end
   
$rem
mem_static = 200
mem_total  = 7500
exchange = b3lyp
basis = G3Large
max_scf_cycles = 50
scf_convergence = 7
symmetry = false
xc_grid = 000075000302
$end
