$molecule
0    2
    C      0.79460721      0.00000600     -0.02239499
    C     -0.69537060      0.00017000     -0.00046000
    H     -1.10339798      0.88959452     -0.48105595
    H      1.34847583     -0.92404924      0.04848502
    H     -1.08604097     -0.01332701      1.02464583
    H     -1.10382662     -0.87671963     -0.50357403
    H      1.34938601      0.92344598      0.04863303
$end
   
$rem
mem_static = 200
mem_total  = 7500
exchange = b3lyp
basis = G3Large
max_scf_cycles = 50
scf_convergence = 7
symmetry = false
xc_grid = 000075000302
$end
