$molecule
0    2
    C      1.20843966     -0.28718923      0.00005700
    C     -0.06535921      0.57613110     -0.00005700
    C     -1.31478840     -0.23951831     -0.00001100
    H      1.24137036     -0.92839379      0.88123352
    H      1.24139682     -0.92858429     -0.88097951
    H      2.10187071      0.33872739      0.00000000
    H     -0.04821805      1.22684974     -0.87709006
    H     -0.04827202      1.22703495      0.87683605
    H     -1.72914474     -0.61577177      0.92443554
    H     -1.72876374     -0.61641736     -0.92436675
$end
   
$rem
mem_static = 200
mem_total  = 7500
exchange = b3lyp
basis = G3Large
max_scf_cycles = 50
scf_convergence = 7
symmetry = false
xc_grid = 000075000302
$end
