$molecule
0    1
    C      0.00000000      0.00000000     -0.14991696
   Cl      0.00000000      0.00000000      1.63280168
    H     -0.51399776     -0.89027024     -0.49429491
    H     -0.51399776      0.89027024     -0.49429491
    H      1.02799552      0.00000000     -0.49429491
$end
   
$rem
mem_static = 200
mem_total  = 7500
exchange = b3lyp
basis = G3Large
max_scf_cycles = 50
scf_convergence = 7
symmetry = false
xc_grid = 000075000302
$end
