$molecule
0    2
   Cl      1.45475048     -0.00123700     -0.00004000
    F     -0.32358710      0.00463100      0.00012400
    C     -2.38742003     -0.00214700     -0.00007300
    H     -2.49508642     -0.85536204     -0.64940627
    H     -2.49731426     -0.13867300      1.06313818
    H     -2.50153709      0.98626990     -0.41373403
$end
   
$rem
mem_static = 200
mem_total  = 7500
exchange = b3lyp
basis = G3Large
max_scf_cycles = 50
scf_convergence = 7
symmetry = false
xc_grid = 000075000302
$end
