$molecule
-1    1
   Cl      0.00000000      0.00000000     -2.21807229
    C      0.00000000      0.00000000     -0.39966594
    H     -0.51253194      0.88773136     -0.05771427
    H     -0.51253194     -0.88773136     -0.05771427
    H      1.02506388      0.00000000     -0.05771427
   Cl      0.00000000      0.00000000      2.79088105
$end
   
$rem
mem_static = 200
mem_total  = 7500
exchange = b3lyp
basis = G3Large
max_scf_cycles = 50
scf_convergence = 7
symmetry = false
xc_grid = 000075000302
$end
