$molecule
0    2
   Cl     -0.00225400     -1.61136048      0.00000000
    F      0.00000000      0.53636873      0.00000000
    F      0.00425800      2.50731041      0.00000000
$end
   
$rem
mem_static = 200
mem_total  = 7500
exchange = b3lyp
basis = G3Large
max_scf_cycles = 50
scf_convergence = 7
symmetry = false
xc_grid = 000075000302
$end
