$molecule
-1    1
    F      0.00000000      0.00000000     -1.79137122
    C      0.00000000      0.00000000     -0.36561700
    H     -0.51179109      0.88644818     -0.01758668
    H     -0.51179109     -0.88644818     -0.01758668
    H      1.02358219      0.00000000     -0.01758668
    F      0.00000000      0.00000000      2.20974825
$end
   
$rem
mem_static = 200
mem_total  = 7500
exchange = b3lyp
basis = G3Large
max_scf_cycles = 50
scf_convergence = 7
symmetry = false
xc_grid = 000075000302
$end
