$molecule
-1    1
    F      0.00000000      0.00000000     -1.99680875
    C      0.00000000      0.00000000      0.05274750
    H     -0.53104256      0.91979269     -0.07385285
    H     -0.53104256     -0.91979269     -0.07385285
    H      1.06208512      0.00000000     -0.07385285
   Cl      0.00000000      0.00000000      2.16561981
$end
   
$rem
mem_static = 200
mem_total  = 7500
exchange = b3lyp
basis = G3Large
max_scf_cycles = 50
scf_convergence = 7
symmetry = false
xc_grid = 000075000302
$end
