$molecule
0    1
    C      0.08031905      0.62025919      0.00000000
    N      0.08031905     -0.56809290      0.00000000
    H     -1.04414601      0.25512110      0.00000000
$end
   
$rem
mem_static = 200
mem_total  = 7500
exchange = b3lyp
basis = G3Large
max_scf_cycles = 50
scf_convergence = 7
symmetry = false
xc_grid = 000075000302
$end
