$molecule
0    2
    H     -1.52086589      1.38883088      0.00000000
    C      0.10863320      0.54932828      0.00000000
    O      0.10863320     -0.58560338      0.00000000
$end
   
$rem
mem_static = 200
mem_total  = 7500
exchange = b3lyp
basis = G3Large
max_scf_cycles = 50
scf_convergence = 7
symmetry = false
xc_grid = 000075000302
$end
