$molecule
0    2
    N     -0.06244185      0.65949239      0.00000000
    N     -0.06244185     -0.51870903      0.00000000
    H      0.87419546     -0.98547613      0.00000000
$end
   
$rem
mem_static = 200
mem_total  = 7500
exchange = b3lyp
basis = G3Large
max_scf_cycles = 50
scf_convergence = 7
symmetry = false
xc_grid = 000075000302
$end
