$molecule
0    2
    N      0.08456305     -0.64293443      0.00000000
    N      0.08456305      0.47987694      0.00000000
    H     -1.18388584      1.14139820      0.00000000
$end
   
$rem
mem_static = 200
mem_total  = 7500
exchange = b3lyp
basis = G3Large
max_scf_cycles = 50
scf_convergence = 7
symmetry = false
xc_grid = 000075000302
$end
