$molecule
0    2
    H     -0.30328522     -1.93071363      0.00000000
    O     -0.86100836     -0.62152392      0.00000000
    N      0.00000000      0.25702719      0.00000000
    N      1.02733405      0.72910565      0.00000000
$end
   
$rem
mem_static = 200
mem_total  = 7500
exchange = b3lyp
basis = G3Large
max_scf_cycles = 50
scf_convergence = 7
symmetry = false
xc_grid = 000075000302
$end
