$molecule
0    3
    C      0.00029000     -1.14228722      0.00000000
    H     -1.05595725     -1.38473505      0.00000000
    H      0.52016744     -1.40738912      0.91244968
    H      0.52016744     -1.40738912     -0.91244968
    H      0.01155998      0.16009886      0.00000000
    O      0.00029000      1.36164175      0.00000000
$end
   
$rem
mem_static = 200
mem_total  = 7500
exchange = b3lyp
basis = G3Large
max_scf_cycles = 50
scf_convergence = 7
symmetry = false
xc_grid = 000075000302
$end
