#p b3lyp 6-311+g(3df,2p) scf=tight nosymm

bih3

0    1
   Bi      0.00000000      0.00000000      0.76520400
    H     -0.71822772     -1.24400690     -0.25508135
    H     -0.71822772      1.24400690     -0.25508135
    H      1.43645544      0.00000000     -0.25508135
 
 
 
