#p b3lyp 6-311+g(3df,2p) scf=tight nosymm

bih3_h2s

0    1
   Bi      0.81220839      1.58085642      0.00000000
    H      0.24612377      2.69732371      1.24292687
    H      0.24612377      2.69732371     -1.24292687
    H     -0.76779810      0.79544039      0.00000000
    H      0.12829075     -3.55424224      0.00000000
    S      0.32147630     -2.23508280      0.00000000
    H     -0.98642488     -1.98161916      0.00000000
 
 
 
