#p b3lyp 6-311+g(3df,2p) scf=tight nosymm

h2o

0    1
    O      0.00000000      0.00000000     -0.39219501
    H      0.75610008      0.00000000      0.19609751
    H     -0.75610008      0.00000000      0.19609751
 
 
 
