#p b3lyp 6-311+g(3df,2p) scf=tight nosymm

h2s

0    1
    H     -0.96010419      0.00000000     -0.30784977
    S      0.00000000      0.00000000      0.61569955
    H      0.96010419      0.00000000     -0.30784977
 
 
 
