#p b3lyp 6-311+g(3df,2p) scf=tight nosymm

hbr

0    1
   Br      0.00000000      0.00000000     -0.70684868
    H      0.00000000      0.00000000      0.70684868
 
 
 
