#p b3lyp 6-311+g(3df,2p) scf=tight nosymm

hi

0    1
    I      0.00000000      0.00000000     -0.79492772
    H      0.00000000      0.00000000      0.79492772
 
 
 
