#p b3lyp 6-311+g(3df,2p) scf=tight nosymm

nh3

0    1
    N      0.00000000      0.00000000     -0.28324502
    H     -0.46811624      0.81080112      0.09441710
    H     -0.46811624     -0.81080112      0.09441710
    H      0.93623249      0.00000000      0.09441710
 
 
 
