#p b3lyp 6-311+g(3df,2p) scf=tight nosymm

pbh4_hcl

0    1
   Pb      0.00000000      0.00000000     -1.34189292
    H      0.00000000     -1.40465323     -0.34532423
    H      0.00000000      1.40465323     -0.34532423
    H      1.40529997      0.00000000     -2.33853283
    H     -1.40529997      0.00000000     -2.33853283
    H      0.00000000      0.00000000      3.99089583
   Cl      0.00000000      0.00000000      2.71871121
 
 
 
