#p b3lyp 6-311+g(3df,2p) scf=tight nosymm

sbh3

0    1
   Sb      0.00000000      0.00000000     -0.70962590
    H     -0.69522106     -1.20415820      0.23654710
    H     -0.69522106      1.20415820      0.23654710
    H      1.39044212      0.00000000      0.23654710
 
 
 
