#p b3lyp 6-311+g(3df,2p) scf=tight nosymm

teh2

0    1
   Te      0.00000000      0.00000000     -0.76954914
    H      1.15536575      0.00000000      0.38477457
    H     -1.15536575      0.00000000      0.38477457
 
 
 
