#p b3lyp 6-311+g(3df,2p) scf=tight nosymm

teh2_hcl

0    1
   Te     -1.10622462     -0.59221194      0.00000000
    H     -1.20525021      1.03639093      0.00000000
    H     -2.73737932     -0.70362581      0.00000000
    H      2.68255536     -0.48643775      0.00000000
   Cl      2.36629881      0.74588457      0.00000000
 
 
 
