#p b3lyp 6-311+g(3df,2p) scf=tight nosymm

C2H6

0    1
    C     -0.76309470      0.00000000      0.00000000
    C      0.76309470      0.00000000      0.00000000
    H      1.15831070     -0.44364206     -0.91409542
    H     -1.15831070     -1.01332673     -0.07463992
    H      1.15831070     -0.56981273      0.84125418
    H      1.15831070      1.01345373      0.07284812
    H     -1.15831070      0.44202014      0.91488389
    H     -1.15831070      0.57130501     -0.84024345
 
 
 
