#p b3lyp 6-311+g(3df,2p) scf=tight nosymm

Cl

0    2
   Cl      0.00000000      0.00000000      0.00000000
 
 
 
