#p b3lyp 6-311+g(3df,2p) scf=tight nosymm

clch3clts

-1    1
   Cl      0.00002500      0.01952600      2.32250057
    C      0.00051300      0.00048600     -0.00008900
    H      0.76127963     -0.75073312      0.00637701
    H     -1.03045091     -0.28272404      0.00214700
    H      0.27072812      1.03492774     -0.00869703
   Cl     -0.00029700     -0.01978403     -2.32245823
 
 
 
