#p b3lyp 6-311+g(3df,2p) scf=tight nosymm

clf2ts

0    2
   Cl     -0.00225400     -1.61136048      0.00000000
    F      0.00000000      0.53636873      0.00000000
    F      0.00425800      2.50731041      0.00000000
 
 
 
