#p b3lyp 6-311+g(3df,2p) scf=tight nosymm

co

0    1
    O      0.00000000      0.00000000      0.48411830
    C      0.00000000      0.00000000     -0.64549036
 
 
 
