#p b3lyp 6-311+g(3df,2p) scf=tight nosymm

f2

0    1
    F      0.00000000      0.00000000      0.69760373
    F      0.00000000      0.00000000     -0.69760373
 
 
 
