#p b3lyp 6-311+g(3df,2p) scf=tight nosymm

H

0    2
    H      0.00000000      0.00000000      0.00000000
 
 
 
