#p b3lyp 6-311+g(3df,2p) scf=tight nosymm

HCl

0    1
   Cl      0.00000000      0.00000000      0.07080285
    H      0.00000000      0.00000000     -1.20364531
 
 
 
