#p b3lyp 6-311+g(3df,2p) scf=tight nosymm

hcnts

0    1
    C      0.08031905      0.62025919      0.00000000
    N      0.08031905     -0.56809290      0.00000000
    H     -1.04414601      0.25512110      0.00000000
 
 
 
