#p b3lyp 6-311+g(3df,2p) scf=tight nosymm

hco

0    2
    H     -0.85205468      1.22789221      0.00000000
    C      0.06086120      0.58465615      0.00000000
    O      0.06086120     -0.59197467      0.00000000
 
 
 
