#p b3lyp 6-311+g(3df,2p) scf=tight nosymm

hcots

0    2
    H     -1.52086589      1.38883088      0.00000000
    C      0.10863320      0.54932828      0.00000000
    O      0.10863320     -0.58560338      0.00000000
 
 
 
