#p b3lyp 6-311+g(3df,2p) scf=tight nosymm

hf2ts

0    2
    H      0.00000000      0.00000000     -2.23127571
    F      0.00000000      0.00000000     -0.61621628
    F      0.00000000      0.00000000      0.86413580
 
 
 
