#p b3lyp 6-311+g(3df,2p) scf=tight nosymm

hfch3ts

0    2
    H      0.00045000      2.00096720      0.00000000
    F     -0.00003500      0.76248086      0.00000000
    C     -0.00003500     -0.90616835      0.00000000
    H      1.05376116     -1.14157283      0.00000000
    H     -0.52684513     -1.14235601      0.91235443
    H     -0.52684513     -1.14235601     -0.91235443
 
 
 
