#p b3lyp 6-311+g(3df,2p) scf=tight nosymm

hfhts

0    2
    H      0.00000000      0.00000000      1.13721770
    F      0.00000000      0.00000000      0.00000000
    H      0.00000000      0.00000000     -1.13721770
 
 
 
