#p b3lyp 6-311+g(3df,2p) scf=tight nosymm

hn2ts

0    2
    N      0.08456305     -0.64293443      0.00000000
    N      0.08456305      0.47987694      0.00000000
    H     -1.18388584      1.14139820      0.00000000
 
 
 
