#p b3lyp 6-311+g(3df,2p) scf=tight nosymm

n2

0    1
    N      0.00000000      0.00000000      0.54855568
    N      0.00000000      0.00000000     -0.54855568
 
 
 
