#p b3lyp 6-311+g(3df,2p) scf=tight nosymm

N2H2

0    1
    H      0.98497342      0.91525432      0.00000000
    N      0.00000000      0.62159272      0.00000000
    N      0.00000000     -0.62159272      0.00000000
    H     -0.98497342     -0.91525432      0.00000000
 
 
 
