#p b3lyp 6-311+g(3df,2p) scf=tight nosymm

n2ohts

0    2
    H     -0.30328522     -1.93071363      0.00000000
    O     -0.86100836     -0.62152392      0.00000000
    N      0.00000000      0.25702719      0.00000000
    N      1.02733405      0.72910565      0.00000000
 
 
 
