#p b3lyp 6-311+g(3df,2p) scf=tight nosymm

NH2

0    2
    N      0.00000000      0.00000000      0.14141520
    H      0.00000000      0.80231203     -0.49495426
    H      0.00000000     -0.80231203     -0.49495426
 
 
 
