#p b3lyp 6-311+g(3df,2p) scf=tight nosymm

oh-

-1    1
    O      0.00000000      0.00000000      0.10689380
    H      0.00000000      0.00000000     -0.85515037
 
 
 
