#p b3lyp 6-311+g(3df,2p) scf=tight nosymm

RKT03

0    2
    C      0.00000000      0.26481298      0.00000000
    H      1.05342778      0.51666799      0.00000000
    H     -0.52662711      0.51702518      0.91224859
    H     -0.52662711      0.51702518     -0.91224859
    H     -0.00026000     -1.11777044      0.00000000
    H      0.00008500     -2.02182737      0.00000000
 
 
 
