#p b3lyp 6-311+g(3df,2p) scf=tight nosymm

RKT02

0    2
    O     -0.30106426     -0.10804899     -0.00000800
    H     -0.42794402      0.85156784      0.00001600
    H      1.01548577     -0.10036692      0.00011900
    H      1.82096757      0.11318730     -0.00007300
 
 
 
