#p b3lyp 6-311+g(3df,2p) scf=tight nosymm

RKT01

0    2
    H      0.00000000      0.00000000     -1.34062813
   Cl      0.00000000      0.00000000      0.20325220
    H      0.00000000      0.00000000     -2.11466092
 
 
 
