#p b3lyp 6-311+g(3df,2p) scf=tight nosymm

RKT18

0    3
    C     -1.19957594     -0.01112600     -0.00003000
    N      1.40071620      0.12986220      0.00001500
    H     -1.42666176     -0.51293200      0.93305584
    H     -1.41990946     -0.59138199     -0.88814457
    H     -1.52023616      1.02280430     -0.04578304
    H      0.18892632      0.12689617      0.00100100
    H      1.57033866     -0.88766831     -0.00005300
 
 
 
