#p b3lyp 6-311+g(3df,2p) scf=tight nosymm

RKT19

0    3
    C     -1.39498521     -0.44966093      0.00070300
    C     -0.43574621      0.71406114      0.00202700
    N      1.92757032     -0.37835218      0.00303600
    H     -1.20008924     -1.12095079     -0.83568723
    H     -1.32209634     -1.02788440      0.92177378
    H     -2.42871172     -0.10535230     -0.08933411
    H     -0.41768804      1.30848061     -0.90720024
    H     -0.44112741      1.32909736      0.89746867
    H      0.82850101      0.18059284     -0.02856102
    H      2.47259110      0.49807323      0.00391000
 
 
 
