#p b3lyp 6-311+g(3df,2p) scf=tight nosymm

RKT14

0    3
    H      0.00000000      0.00000000     -0.86028868
    O      0.00000000      0.00000000      0.32902387
    H      0.00000000      0.00000000     -1.77190755
 
 
 
