#p b3lyp 6-311+g(3df,2p) scf=tight nosymm

RKT10

0    2
    H      0.14656780     -1.12839102      0.00000000
    F      0.00000000      0.33042195      0.00000000
    H     -0.14656780     -1.84541027      0.00000000
 
 
 
