#p b3lyp 6-311+g(3df,2p) scf=tight nosymm

RKT16

0    2
    H      1.26209823     -0.22009697      0.00000000
    S      0.00000000      0.22315297      0.00000000
    H     -0.50057624     -1.11544735      0.00000000
    H     -0.76152305     -2.23491645      0.00000000
 
 
 
