#p b3lyp 6-311+g(3df,2p) scf=tight nosymm

RKT20

0    2
    C     -1.48570206     -0.44815595     -0.00001900
    C     -0.50504197      0.70174190      0.00002900
    N      1.86515916     -0.34016728     -0.00005700
    H     -1.35419094     -1.07650520     -0.88050325
    H     -1.35415919     -1.07661103      0.88038683
    H     -2.51702611     -0.08617280      0.00002500
    H     -0.52222435      1.31611664     -0.89721996
    H     -0.52220530      1.31603197      0.89733638
    H      0.66504875      0.14796112     -0.00003400
    H      2.24664301      0.15971732     -0.80480445
    H      2.24644192      0.15913311      0.80515371
 
 
 
