$molecule
0    2
   Si      0.00000000      0.00000000     -0.34122395
    H      0.70774083     -1.22584308      0.11374132
    H      0.70774083      1.22584308      0.11374132
    H     -1.41548167      0.00000000      0.11374132
$end
   
$rem
mem_static = 200
mem_total  = 7500
exchange = b3lyp
basis = G3Large
max_scf_cycles = 50
scf_convergence = 7
symmetry = false
xc_grid = 000075000302
$end
