$molecule
-1    1
    C      0.00000000      0.00000000     -0.34381636
    H      0.50698032     -0.87811567      0.11460545
    H      0.50698032      0.87811567      0.11460545
    H     -1.01396064      0.00000000      0.11460545
$end
   
$rem
mem_static = 200
mem_total  = 7500
exchange = b3lyp
basis = G3Large
max_scf_cycles = 50
scf_convergence = 7
symmetry = false
xc_grid = 000075000302
$end
