lattice_vector 1.5310 -2.6518 0.0000
lattice_vector 1.5310 2.6518 0.0000
lattice_vector 0.0000 0.0000 5.0004

atom   1.5310 0.8839 0.0000 Si
atom   1.5310 -0.8839 2.5002 Si
atom   1.5310 0.8839 1.8751 C
atom   1.5310 -0.8839 4.3753 C
