#p b3lyp 6-311+g(3df,2p) scf=tight nosymm

01_Water-Water_2_y_-30

0    1
    O     -2.97035283     -0.10573749     -0.00014599
    H     -3.29737262      0.79483368     -0.00000000
    H     -2.01142715     -0.00000000     -0.00000000
    O      0.05261620      0.00000000      0.00000000
    H      0.00220694     -0.45430696      0.84381964
    H      0.75775968     -0.45466058     -0.46587642
 
 
 
