#p b3lyp 6-311+g(3df,2p) scf=tight nosymm

02_Water-MeOH_2_z_-30

0    1
    O     -2.90611406     -0.15862049     -0.13249950
    H     -3.30283489      0.70335373     -0.00000000
    H     -1.96234680     -0.00000000     -0.00000000
    O      0.10133809      0.00000000      0.00000000
    H      0.27888938     -0.53753511      0.77540963
    C      0.02541318     -0.87448962     -1.12303759
    H     -0.18338662     -0.25313923     -1.98734855
    H      0.96555255     -1.39971621     -1.28945362
    H     -0.78051516     -1.60062722     -1.01921345
 
 
 
