#p b3lyp 6-311+g(3df,2p) scf=tight nosymm

02_Water-MeOH_1_z_-30

0    1
    O      0.94376725     -0.15862049      0.13249950
    H      1.34048808      0.70335373     -0.00000000
    H      0.00000000      0.00000000      0.00000000
    O     -1.83905573      0.98117340      0.00000000
    H     -2.39335044      0.86616978     -0.77540963
    C     -2.55842350      0.47817569      1.12303759
    H     -1.91591838      0.60802496      1.98734855
    H     -3.48335276      1.02974697      1.28945362
    H     -2.78431295     -0.58284753      1.01921345
 
 
 
