#p b3lyp 6-311+g(3df,2p) scf=tight nosymm

02_Water-MeOH_1_y_-30

0    1
    O      0.94376725     -0.15862049      0.13249950
    H      1.34048808      0.70335373     -0.00000000
    H      0.00000000      0.00000000      0.00000000
    O     -1.87085539      0.00000000     -0.98117340
    H     -1.84907358     -0.37674341     -1.86396358
    C     -2.75409562     -0.79529268     -0.19434027
    H     -2.76059864     -0.36158735      0.79992554
    H     -3.76983795     -0.78008256     -0.58861870
    H     -2.41216410     -1.82711046     -0.11681181
 
 
 
