#p b3lyp 6-311+g(3df,2p) scf=tight nosymm

03_Water-MeNH2_2_z_-30

0    1
    O     -2.97821428     -0.09986234     -0.00874172
    H     -3.30143673      0.80186438     -0.00000000
    H     -2.01196375     -0.00000000     -0.00000000
    N      0.05350635      0.00000000      0.00000000
    H     -0.00596493     -0.64211635     -0.78005843
    H      0.05795926     -0.57947687      0.82971809
    C      1.30838170      0.75309599     -0.07932811
    H      1.37179814      1.42941925      0.76966696
    H      2.21003287      0.13708862     -0.09117553
    H      1.30202715      1.36120630     -0.98062775
 
 
 
