#p b3lyp 6-311+g(3df,2p) scf=tight nosymm

03_Water-MeNH2_1_y_+30

0    1
    O      0.96625054     -0.09986234      0.00874172
    H      1.28947298      0.80186438      0.00000000
    H      0.00000000     -0.00000000      0.00000000
    N     -1.94881332      0.00000000      1.00598187
    H     -1.79222517     -0.58582471      1.81630956
    H     -2.61793289     -0.49961523      0.43422231
    C     -2.52420565      1.27963793      1.42978500
    H     -2.70340895      1.89705928      0.55291301
    H     -3.46125933      1.19698549      1.98447342
    H     -1.80547043      1.80309963      2.05555420
 
 
 
