#p b3lyp 6-311+g(3df,2p) scf=tight nosymm

05_MeOH-MeOH_1_y_-30

0    1
    O      0.95290245     -0.00189177      0.16057898
    H      0.00000000      0.00000000      0.00000000
    C      1.40482947      1.32683832      0.00000000
    H      2.47289351      1.33438702      0.20091548
    H      1.24961064      1.70273645     -1.01412192
    H      0.92609732      2.01901244      0.69741685
    O     -1.82345846      0.00000000     -0.96837126
    H     -1.92753617     -0.57716302     -1.72850397
    C     -2.86506175     -0.30437276     -0.04483274
    H     -2.71963115      0.34413340      0.81272640
    H     -3.84958719     -0.10696706     -0.46809454
    H     -2.81915140     -1.33886286      0.29467507
 
 
 
