#p b3lyp 6-311+g(3df,2p) scf=tight nosymm

06_MeOH-MeNH2_1_y_+30

0    1
    O      0.96959574      0.08007877      0.00285958
    H      0.00000000      0.00000000      0.00000000
    C      1.26291710      1.45833936     -0.00000000
    H      2.34473752      1.56812610      0.00184960
    H      0.87845524      1.97023329     -0.88746125
    H      0.87495755      1.97461483      0.88338715
    N     -1.90370673      0.00000000      0.98468068
    H     -1.80151247     -0.52916603      1.84129872
    H     -2.61323400     -0.48273762      0.44822841
    C     -2.36298917      1.35715254      1.29762732
    H     -2.48273540      1.91384389      0.37140549
    H     -3.30491311      1.40309833      1.84809169
    H     -1.60072199      1.86330587      1.88488560
 
 
 
