#p b3lyp 6-311+g(3df,2p) scf=tight nosymm

06_MeOH-MeNH2_2_z_-30

0    1
    O     -2.93895711      0.08007877     -0.00285958
    H     -1.96936137      0.00000000      0.00000000
    C     -3.23227847      1.45833936      0.00000000
    H     -4.31409889      1.56812610     -0.00184960
    H     -2.84781661      1.97023329      0.88746125
    H     -2.84431892      1.97461483     -0.88338715
    N      0.05837697      0.00000000      0.00000000
    H      0.08807475     -0.62817432     -0.79295011
    H      0.11686296     -0.59118429      0.81934493
    C      1.21692494      0.89821678     -0.04137851
    H      1.18401446      1.56002946      0.82062624
    H      2.18469885      0.39252588     -0.04713268
    H      1.15259151      1.51981523     -0.93109269
 
 
 
