#p b3lyp 6-311+g(3df,2p) scf=tight nosymm

07_MeOH-Peptide_1_y_+30

0    1
    O      0.95245631      0.16519578     -0.08636954
    H      0.00000000      0.00000000      0.00000000
    C      1.39062207     -0.56587022     -1.21095267
    H      2.45344085     -0.37371974     -1.33590575
    H      1.25416139     -1.64309268     -1.08899313
    H      0.88359256     -0.26236410     -2.13170015
    C     -2.06322220      2.11231450     -0.15387876
    H     -2.46189513      3.08983707      0.10601414
    H     -2.52527010      1.77853183     -1.08165073
    H     -0.99255806      2.18054712     -0.32574671
    C     -2.31867195      1.07505004      0.90955605
    O     -1.71974034      0.00000000      0.94055975
    N     -3.25970125      1.38893235      1.82965660
    H     -3.76509422      2.24935455      1.72689441
    C     -3.63966156      0.45220450      2.86635282
    H     -2.75095005     -0.07179959      3.20400403
    H     -4.07803352      0.99629134      3.69754963
    H     -4.35357960     -0.28625225      2.50345107
 
 
 
