#p b3lyp 6-311+g(3df,2p) scf=tight nosymm

08_MeOH-Water_1_y_-30

0    1
    O      0.96481488     -0.00082255      0.00068712
    H     -0.00000000      0.00000000      0.00000000
    C      1.38218395      1.34907361      0.00000000
    H      2.46891574      1.35333597      0.00027378
    H      1.04292703      1.89153543     -0.88569549
    H      1.04245984      1.89261044      0.88486244
    O     -1.88619094     -0.00000000     -0.99260572
    H     -1.87586287     -0.40763820     -1.86133659
    H     -2.63222911     -0.41149480     -0.55093188
 
 
 
