#p b3lyp 6-311+g(3df,2p) scf=tight nosymm

10_MeNH2-MeNH2_2_z_+30

0    1
    N     -3.17657760      0.47032238      0.00000000
    H     -2.27660219     -0.00000000      0.00000000
    H     -3.82813386     -0.16547113     -0.44087101
    C     -3.59389155      0.70373531      1.38084680
    H     -4.56235447      1.20056194      1.39094125
    H     -3.67001128     -0.19306070      2.00386482
    H     -2.88475372      1.37743047      1.85843182
    N      1.02818268      0.00000000      0.00000000
    H      1.15307056      0.11558359     -0.99767036
    H      1.95934087     -0.10807768      0.38059276
    C      0.40847683      1.20834686      0.55230592
    H      0.32385237      1.10061918      1.63147591
    H      0.94721690      2.13652636      0.34644229
    H     -0.59936870      1.29869928      0.15382456
 
 
 
