#p b3lyp 6-311+g(3df,2p) scf=tight nosymm

11_MeNH2-Peptide_1_y_+30

0    1
    N      0.80346365      0.61899393     -0.02068077
    H      0.00000000      0.00000000      0.00000000
    H      1.61267343      0.03073904     -0.16961552
    C      0.65610014      1.53348186     -1.15184025
    H      1.51762555      2.19726770     -1.19830741
    H      0.54693160      1.05136841     -2.12789783
    H     -0.22288869      2.15679501     -0.99432490
    C     -1.05030535      1.46990294      2.58554823
    H     -0.87846087      0.70815343      3.34244506
    H     -1.18411405      2.43407846      3.07048268
    H     -0.17422576      1.50101518      1.93966718
    C     -2.23291254      1.05526269      1.74781037
    O     -2.25597565     -0.00000000      1.12063503
    N     -3.26647517      1.93491175      1.70404720
    H     -3.23803496      2.74464642      2.29501996
    C     -4.46650571      1.63566230      0.95306799
    H     -4.18483674      1.17165483      0.01242712
    H     -5.12011180      0.94645109      1.48716370
    H     -5.00455472      2.55808919      0.75501921
 
 
 
