#p b3lyp 6-311+g(3df,2p) scf=tight nosymm

11_MeNH2-Peptide_1_z_-30

0    1
    N      0.80346365      0.61899393     -0.02068077
    H      0.00000000      0.00000000      0.00000000
    H      1.61267343      0.03073904     -0.16961552
    C      0.65610014      1.53348186     -1.15184025
    H      1.51762555      2.19726770     -1.19830741
    H      0.54693160      1.05136841     -2.12789783
    H     -0.22288869      2.15679501     -0.99432490
    C     -1.59155147      2.23776607      1.87148720
    H     -2.17128880      1.69288500      2.61290131
    H     -1.41980300      3.25194104      2.22454839
    H     -0.63926095      1.72388620      1.75017759
    C     -2.32307584      2.18132654      0.55468133
    O     -2.59642963      1.12063503     -0.00000000
    N     -2.63947327      3.37972993      0.00000000
    H     -2.46917449      4.21640894      0.52601753
    C     -3.36393738      3.45245597     -1.25038234
    H     -2.97737993      2.69348725     -1.92416675
    H     -4.43001777      3.27212521     -1.11464494
    H     -3.22050305      4.43477095     -1.69092212
 
 
 
