#p b3lyp 6-311+g(3df,2p) scf=tight nosymm

11_MeNH2-Peptide_2_z_-30

0    1
    N     -3.04473371      0.61899393      0.02068077
    H     -2.24127006      0.00000000     -0.00000000
    H     -3.85394350      0.03073904      0.16961552
    C     -2.89737020      1.53348186      1.15184025
    H     -3.75889561      2.19726770      1.19830741
    H     -2.78820166      1.05136841      2.12789783
    H     -2.01838137      2.15679501      0.99432490
    C      0.44220799      1.42881554     -1.87148720
    H      0.26019581      0.65430775     -2.61290131
    H      1.23463505      2.08464156     -2.22454839
    H     -0.47897028      1.99658339     -1.75017759
    C      0.75909212      0.76707708     -0.55468133
    O     -0.02281678      0.00000000      0.00000000
    N      1.95513861      1.09227056      0.00000000
    H      2.59457450      1.65809314     -0.52601753
    C      2.38035326      0.50122927      1.25038234
    H      1.52978835      0.45651348      1.92416675
    H      2.75722244     -0.51218881      1.11464494
    H      3.15934582      1.11660453      1.69092212
 
 
 
