#p b3lyp 6-311+g(3df,2p) scf=tight nosymm

11_MeNH2-Peptide_2_y_-30

0    1
    N     -3.04473371      0.61899393      0.02068077
    H     -2.24127006      0.00000000     -0.00000000
    H     -3.85394350      0.03073904      0.16961552
    C     -2.89737020      1.53348186      1.15184025
    H     -3.75889561      2.19726770      1.19830741
    H     -2.78820166      1.05136841      2.12789783
    H     -2.01838137      2.15679501      0.99432490
    C      0.65449771      1.46990294     -1.77659771
    H      1.22406735      0.70815343     -2.30386780
    H      1.14136761      2.43407846     -1.90318319
    H     -0.34289149      1.50101518     -2.21236436
    C      0.52029903      1.05526269     -0.33356091
    O     -0.01131919      0.00000000      0.00000000
    N      0.99918033      1.93491175      0.58341217
    H      1.49675765      2.74464642      0.26329584
    C      0.94882853      1.63566230      1.99815871
    H     -0.00662485      1.17165483      2.22454666
    H      1.73817202      0.94645109      2.29715033
    H      1.04633776      2.55808919      2.56314721
 
 
 
