#p b3lyp 6-311+g(3df,2p) scf=tight nosymm

13_Peptide-MeOH_1_y_+30

0    1
    C      0.73836405      2.37693595      0.57349118
    H     -0.28104831      2.05431273      0.77034752
    H      0.72746607      3.21027701     -0.12569857
    H      1.19228422      2.73057352      1.49591968
    C      1.60548706      1.27917410      0.00000000
    O      2.79654211      1.44602380     -0.24171972
    N      0.97305151      0.10567720     -0.24027936
    H      0.00000000     -0.00000000      0.00000000
    C      1.70869441     -1.01460976     -0.78255475
    H      2.24124361     -0.71520402     -1.68250986
    H      2.44491019     -1.38962173     -0.07256534
    H      1.00874371     -1.80916656     -1.02435895
    O     -1.91547236     -0.00000000      1.00740139
    H     -2.26961989     -0.28044986      1.85430086
    C     -2.92213938      0.74975901      0.33463732
    H     -2.49753878      1.05633677     -0.61640137
    H     -3.81218461      0.15184042      0.13971628
    H     -3.20485562      1.64295912      0.89177371
 
 
 
