#p b3lyp 6-311+g(3df,2p) scf=tight nosymm

13_Peptide-MeOH_2_y_+30

0    1
    C     -2.75316683      2.37693595     -0.57349118
    H     -1.73375446      2.05431273     -0.77034752
    H     -2.74226884      3.21027701      0.12569857
    H     -3.20708699      2.73057352     -1.49591968
    C     -3.62028983      1.27917410     -0.00000000
    O     -4.81134488      1.44602380      0.24171972
    N     -2.98785428      0.10567720      0.24027936
    H     -2.01480277      0.00000000     -0.00000000
    C     -3.72349718     -1.01460976      0.78255475
    H     -4.25604638     -0.71520402      1.68250986
    H     -4.45971296     -1.38962173      0.07256534
    H     -3.02354648     -1.80916656      1.02435895
    O      0.05729076      0.00000000      0.00000000
    H      0.41143829     -0.28044986     -0.84689947
    C      1.06395778      0.74975901      0.67276406
    H      0.63935718      1.05633677      1.62380276
    H      1.95400301      0.15184042      0.86768511
    H      1.34667402      1.64295912      0.11562767
 
 
 
