#p b3lyp 6-311+g(3df,2p) scf=tight nosymm

15_Peptide-Peptide_1_y_-30

0    1
    C      0.82164812      2.33052923      0.50294292
    H      1.28894352      2.73639781      1.39672934
    H     -0.20073166      2.03634442      0.72766927
    H      0.82039497      3.11708805     -0.24929677
    C      1.67020801      1.18311120     -0.00000000
    O      2.86949142      1.31936136     -0.22108490
    N      0.99502460      0.02123926     -0.18420489
    H      0.00000000      0.00000000      0.00000000
    C      1.65793020     -1.17287359     -0.65340968
    H      2.69959418     -0.92096032     -0.82783215
    H      1.60299229     -1.97099111      0.08573460
    H      1.21648966     -1.52921881     -1.58371976
    C     -0.90012939      1.31422723     -2.69831306
    H     -0.96411232      1.43356421     -3.77710117
    H      0.06530798      0.89039284     -2.43512212
    H     -0.96586067      2.29479075     -2.23029271
    C     -1.98965053      0.43650137     -2.13403417
    O     -1.94432208      0.00000000     -0.98466511
    N     -3.02377293      0.18133011     -2.97066558
    H     -2.99739632      0.58299746     -3.89004668
    C     -4.17052324     -0.60601070     -2.57065560
    H     -3.97338177     -0.97327734     -1.56895874
    H     -5.07627344     -0.00280399     -2.55676727
    H     -4.31328327     -1.45031546     -3.24145090
 
 
 
