#p b3lyp 6-311+g(3df,2p) scf=tight nosymm

15_Peptide-Peptide_1_z_-30

0    1
    C      0.82164812      2.33052923      0.50294292
    H      1.28894352      2.73639781      1.39672934
    H     -0.20073166      2.03634442      0.72766927
    H      0.82039497      3.11708805     -0.24929677
    C      1.67020801      1.18311120     -0.00000000
    O      2.86949142      1.31936136     -0.22108490
    N      0.99502460      0.02123926     -0.18420489
    H      0.00000000      0.00000000      0.00000000
    C      1.65793020     -1.17287359     -0.65340968
    H      2.69959418     -0.92096032     -0.82783215
    H      1.60299229     -1.97099111      0.08573460
    H      1.21648966     -1.52921881     -1.58371976
    C     -1.58347832      2.09908256     -2.00615901
    H     -2.03892598      2.49983387     -2.90842545
    H     -0.95735246      1.24818684     -2.26094765
    H     -0.93983626      2.85973287     -1.56797585
    C     -2.59514217      1.66965644     -0.97271859
    O     -2.28170512      0.98466511      0.00000000
    N     -3.86059164      2.10561764     -1.18020144
    H     -4.03807919      2.67189563     -1.98959713
    C     -4.94111537      1.82031545     -0.26040748
    H     -4.54314512      1.16646422      0.50851672
    H     -5.31281084      2.73143704      0.20449527
    H     -5.76080066      1.31864181     -0.76995324
 
 
 
