#p b3lyp 6-311+g(3df,2p) scf=tight nosymm

18_Water-Pyridine_2_y_-30

0    1
    O     -2.96481614      0.00034721      0.05108578
    H     -3.23781226     -0.00608079     -0.86730482
    H     -1.99551991      0.00000000      0.00000000
    N      0.03366262      0.00000000      0.00000000
    C      0.60423437      1.14510731      0.39882932
    H      0.12978288      2.05565517      0.05549506
    C      1.73544856      1.19586784      1.20747801
    H      2.15064917      2.15045584      1.49674137
    C      2.30979926      0.00138295      1.62936675
    H      3.18846042      0.00190654      2.25919936
    C      1.72559622     -1.19377211      1.22327105
    H      2.13295161     -2.14785420      1.52512341
    C      0.59478969     -1.14439343      0.41394555
    H      0.11286186     -2.05545121      0.08262395
 
 
 
