#p b3lyp 6-311+g(3df,2p) scf=tight nosymm

19_MeOH-Pyridine_2_z_-30

0    1
    O     -2.92067615      0.08801830     -0.00148693
    H     -1.95279063     -0.00000000     -0.00000000
    C     -3.19555865      1.47118595      0.00000000
    H     -4.27591009      1.59407331     -0.00309808
    H     -2.80365651      1.97760392      0.88682020
    H     -2.79826081      1.98053743     -0.88273782
    N      0.03271800      0.00000000     -0.00000000
    C      0.62922810     -0.36135237      1.14433787
    H      0.12719060     -0.06212930      2.05563075
    C      1.81999604     -1.07948235      1.19226314
    H      2.25432262     -1.34329506      2.14576729
    C      2.42879138     -1.44517652     -0.00373761
    H      3.35402401     -2.00418928     -0.00517841
    C      1.81866221     -1.07558553     -1.19788703
    H      2.25186512     -1.33627234     -2.15264911
    C      0.62796633     -0.35760247     -1.14617306
    H      0.12484168     -0.05533751     -2.05597216
 
 
 
