#p b3lyp 6-311+g(3df,2p) scf=tight nosymm

20_AcOH-AcOH_1_y_+30

0    1
    C      1.08424053      0.10590206     -0.00035565
    O      0.37457831      1.10399458     -0.00000000
    O      0.61937910     -1.13325520      0.00014103
    H     -0.37457831     -1.10399458      0.00000000
    C      2.58066759      0.16015481     -0.00333229
    H      2.91207855      1.19114822      0.01498987
    H      2.96394838     -0.37662612      0.86103836
    H      2.95683584     -0.34084207     -0.89224863
    C     -2.53254589     -0.10592628      1.38811184
    O     -1.91805996     -1.10402313      1.03296721
    O     -2.12992773      1.13332188      1.15569716
    H     -1.26914248      1.10402313      0.65860997
    C     -3.82815218     -0.16013364      2.13692756
    H     -4.11630404     -1.19126938      2.30046970
    H     -3.71717415      0.35645545      3.08723641
    H     -4.59506475      0.36128970      1.56921705
 
 
 
