#p b3lyp 6-311+g(3df,2p) scf=tight nosymm

24_Benzene-Benzene_pi-pi_2_z_-30

0    1
    C     -3.40256416      1.16349320      0.68356587
    H     -3.12890869      2.06501321      1.21468843
    C     -3.15844104      1.06144469     -0.68418760
    H     -2.69040136      1.88053799     -1.21264496
    C     -3.50633113     -0.10174791     -1.36799543
    H     -3.31430617     -0.18176247     -2.42945217
    C     -4.09600260     -1.16339311     -0.68437984
    H     -4.36596668     -2.06610972     -1.21580333
    C     -4.33792388     -1.06200411      0.68466474
    H     -4.79669976     -1.88534556      1.21552612
    C     -3.99316606      0.10264177      1.36812391
    H     -4.18256352      0.18248867      2.43016870
    C      1.60678804      0.83357111      0.68451463
    H      2.29215015      1.48008408      1.21598751
    C      1.76579394      0.62458874     -0.68451463
    H      2.57513823      1.10778725     -1.21524987
    C      0.88459648     -0.21125149     -1.36807331
    H      1.00881624     -0.37521609     -2.43009282
    C     -0.15777543     -0.83407369     -0.68366665
    H     -0.84575457     -1.47761584     -1.21489601
    C     -0.31833212     -0.62342441      0.68402174
    H     -1.13360027     -1.09822727      1.21232918
    C      0.56482094      0.20958905      1.36793506
    H      0.43837405      0.37511221      2.42933806
 
 
 
