#p b3lyp 6-311+g(3df,2p) scf=tight nosymm

25_Pyridine-Pyridine_pi-pi_1_y_-30

0    1
    N      0.38476820      0.93966783      0.95722570
    C     -0.09251789     -0.26305683      1.30407392
    H     -0.16024316     -0.45732981      2.36770313
    C     -0.49333577     -1.23395748      0.38838085
    H     -0.88331359     -2.17958755      0.73672633
    C     -0.38994480     -0.95213448     -0.96901696
    H     -0.69213775     -1.67930326     -1.70985103
    C      0.10741396      0.29090760     -1.34806726
    H      0.20945170      0.55977468     -2.39014286
    C      0.47518996      1.19549430     -0.35587503
    H      0.86468908      2.17061855     -0.62265324
    N     -4.28727266     -1.15424147     -1.40059927
    C     -3.69446152     -1.06643055     -2.60003352
    H     -3.77364245     -1.94232145     -3.23274218
    C     -3.01348187      0.06272494     -3.04629109
    H     -2.56025225      0.06858442     -4.02775813
    C     -2.93068932      1.16936442     -2.20677867
    H     -2.40505576      2.06259008     -2.51477601
    C     -3.53735316      1.09539105     -0.95815492
    H     -3.49357178      1.92201913     -0.26355186
    C     -4.20092951     -0.07851747     -0.60692021
    H     -4.68408314     -0.16222606      0.35908538
 
 
 
