#p b3lyp 6-311+g(3df,2p) scf=tight nosymm

26_Uracil-Uracil_pi-pi_1_z_-30

0    1
    N     -0.08326113      0.23512302     -0.91450899
    H     -0.31064008      0.51332645     -1.86177709
    C     -0.04508768     -1.14224124     -0.66270325
    O     -0.23159647     -1.94485242     -1.56473787
    N      0.19274653      0.83938717      1.29214319
    H      0.28772083     -2.50289334      1.01191426
    C      0.29464387     -0.47862572      1.64219832
    H      0.44441245     -0.66951374      2.69425609
    C      0.20726920     -1.46768142      0.72877299
    H      0.14091805      1.55709449      1.99705275
    C     -0.04355028      1.26986533     -0.00000000
    O     -0.20992845      2.43887142     -0.29026084
    N     -3.06855862      2.35842923      0.03733121
    H     -2.37801222      3.09973278      0.04280082
    C     -3.41994097      1.82616403      1.28441575
    O     -2.94160479      2.28164903      2.31221174
    N     -4.27772277      0.81611078     -1.17502397
    H     -4.70554186      0.26505501      2.10700220
    C     -4.72282833      0.24896005     -0.01299957
    H     -5.38381708     -0.59636890     -0.13219378
    C     -4.35165335      0.71710462      1.19666202
    H     -4.46742768      0.38387529     -2.06489587
    C     -3.39241622      1.87691312     -1.21640472
    O     -2.94149706      2.32517166     -2.25286238
 
 
 
