#p b3lyp 6-311+g(3df,2p) scf=tight nosymm

26_Uracil-Uracil_pi-pi_2_z_+30

0    1
    N     -3.08264681      0.23512302      0.91450899
    H     -2.85526786      0.51332645      1.86177709
    C     -3.12082026     -1.14224124      0.66270325
    O     -2.93431147     -1.94485242      1.56473787
    N     -3.35865447      0.83938717     -1.29214319
    H     -3.45362877     -2.50289334     -1.01191426
    C     -3.46055182     -0.47862572     -1.64219832
    H     -3.61032040     -0.66951374     -2.69425609
    C     -3.37317714     -1.46768142     -0.72877299
    H     -3.30682599      1.55709449     -1.99705275
    C     -3.12235767      1.26986533      0.00000000
    O     -2.95597949      2.43887142      0.29026084
    N     -0.08093342      0.77547526     -0.03733121
    H     -0.77147982      1.51677881     -0.04280082
    C      0.27044894      0.24321006     -1.28441575
    O     -0.20788725      0.69869505     -2.31221174
    N      1.12823073     -0.76684319      1.17502397
    H      1.55604982     -1.31789896     -2.10700220
    C      1.57333629     -1.33399392      0.01299957
    H      2.23432504     -2.17932287      0.13219378
    C      1.20216131     -0.86584935     -1.19666202
    H      1.31793564     -1.19907868      2.06489587
    C      0.24292418      0.29395914      1.21640472
    O     -0.20799498      0.74221769      2.25286238
 
 
 
