#p b3lyp 6-311+g(3df,2p) scf=tight nosymm

28_Benzene-Uracil_pi-pi_1_z_-30

0    1
    C      0.15078632      0.68048606      1.20847218
    H      0.25402531      1.20984160      2.14524296
    C     -0.17099913     -0.67530525      1.20796270
    H     -0.30991027     -1.19661155      2.14529585
    C     -0.32053084     -1.35574007      0.00000030
    H     -0.56628447     -2.40946981      0.00140803
    C     -0.14972151     -0.68058066     -1.20790686
    H     -0.26765934     -1.20582196     -2.14606652
    C      0.17022215      0.67606745     -1.20855256
    H      0.29074094      1.20123132     -2.14575888
    C      0.32237103      1.35456769     -0.00000000
    H      0.57373014      2.40684544      0.00016729
    N     -2.73147021      2.31565332     -0.01603161
    H     -1.94072853      2.94388400     -0.05724562
    C     -3.16136846      1.95364809      1.26653094
    O     -2.63017557      2.42745772      2.25675869
    C     -4.25932257      1.00247232      1.25851967
    H     -4.66703447      0.67462300      2.19915941
    C     -4.74830581      0.55478272      0.08410171
    H     -5.56368180     -0.15102284      0.02538164
    N     -4.23476256      0.96581152     -1.11597466
    H     -4.60811646      0.62815041     -1.98702968
    C     -3.19342828      1.87200355     -1.23520738
    O     -2.75146023      2.23300540     -2.30851187
 
 
 
