#p b3lyp 6-311+g(3df,2p) scf=tight nosymm

32_Uracil-Ethyne_2_y_-30

0    1
    N     -3.34219642      0.29629730     -0.89552659
    H     -3.30483094      0.62285489     -1.85131715
    C     -3.47933375     -1.08835444     -0.72548145
    O     -3.59697162     -1.82314913     -1.69106922
    C     -3.46695339     -1.50132634      0.66720678
    H     -3.59218628     -2.54492649      0.89860454
    C     -3.29798538     -0.57958911      1.63641769
    H     -3.27537278     -0.83638319      2.68498824
    N     -3.13996596      0.74911566      1.35053172
    H     -2.96317004      1.42045836      2.07876447
    C     -3.10613239      1.25534799      0.06365567
    O     -2.89641386      2.42900525     -0.17985030
    C     -0.02408383      0.60585994     -0.00596547
    H     -0.07579039      1.66695824     -0.04341876
    C      0.02285642     -0.60588993      0.00830466
    H      0.07525581     -1.66660088      0.01554476
 
 
 
