#p b3lyp 6-311+g(3df,2p) scf=tight nosymm

33_Pyridine-Ethene_1_z_+30

0    1
    N     -0.09580856     -1.39166944     -0.00000363
    C     -0.05005870     -0.69016765     -1.14009793
    H     -0.08903521     -1.26932654     -2.05474786
    C      0.04785597      0.69807373     -1.19314698
    H      0.08440795      1.20200795     -2.14865783
    C      0.10168958      1.40966247      0.00001127
    H      0.17975043      2.48808624      0.00000000
    C      0.04789132      0.69805852      1.19314250
    H      0.08443520      1.20198312      2.14865169
    C     -0.04997420     -0.69017667      1.14009778
    H     -0.08883814     -1.26934207      2.05472532
    C     -3.63418025     -1.69428903      0.66634423
    H     -3.04760670     -2.40848312      1.22595391
    H     -4.21853702     -0.97974050      1.22862471
    C     -3.63399552     -1.69476323     -0.66634302
    H     -3.04726983     -2.40933682     -1.22530151
    H     -4.21822169     -0.98060474     -1.22929151
 
 
 
