#p b3lyp 6-311+g(3df,2p) scf=tight nosymm

34_Pentane-Pentane_1_z_+30

0    1
    C     -0.02070716      0.33480611      2.53316648
    H      0.81479290      1.03418388      2.56319524
    H     -0.94134281      0.91718640      2.56658994
    H      0.02076959     -0.27493536      3.43453883
    C      0.03544726     -0.51728822      1.27209867
    H     -0.79010792     -1.23316205      1.27153644
    H      0.95386979     -1.10894716      1.26709647
    C     -0.02681671      0.31715915     -0.00000000
    H     -0.94806225      0.90732904     -0.00022517
    H      0.79771252      1.03639823     -0.00006736
    C      0.03574350     -0.51807152     -1.27168085
    H     -0.78948442     -1.23427889     -1.27046137
    H      0.95442376     -1.10928069     -1.26617265
    C     -0.02082334      0.33274982     -2.53354552
    H      0.81415131      1.03272120     -2.56435060
    H      0.02130287     -0.27809118     -3.43419611
    H     -0.94190930      0.91436273     -2.56794589
    C     -3.54553914     -2.20315650     -2.53343267
    H     -2.45703552     -2.24579249     -2.56777141
    H     -3.91818770     -3.22701667     -2.56364616
    H     -3.88766859     -1.69588018     -3.43436852
    C     -4.02031910     -1.49411610     -1.27196217
    H     -5.11153072     -1.44153768     -1.26676836
    H     -3.66386213     -0.46119257     -1.27112817
    C     -3.54884523     -2.18546803      0.00016168
    H     -3.90326204     -3.22061188      0.00061435
    H     -2.45592574     -2.23589908      0.00033426
    C     -4.02058453     -1.49298498      1.27157341
    H     -5.11178019     -1.43995606      1.26594112
    H     -3.66371405     -0.46019909      1.27017070
    C     -3.54653580     -2.20142172      2.53364820
    H     -2.45805451     -2.24488725      2.56808754
    H     -3.88834824     -1.69330684      3.43419493
    H     -3.91996034     -3.22499645      2.56447729
 
 
 
