#p b3lyp 6-311+g(3df,2p) scf=tight nosymm

34_Pentane-Pentane_1_z_-30

0    1
    C     -0.02070716      0.33480611      2.53316648
    H      0.81479290      1.03418388      2.56319524
    H     -0.94134281      0.91718640      2.56658994
    H      0.02076959     -0.27493536      3.43453883
    C      0.03544726     -0.51728822      1.27209867
    H     -0.79010792     -1.23316205      1.27153644
    H      0.95386979     -1.10894716      1.26709647
    C     -0.02681671      0.31715915     -0.00000000
    H     -0.94806225      0.90732904     -0.00022517
    H      0.79771252      1.03639823     -0.00006736
    C      0.03574350     -0.51807152     -1.27168085
    H     -0.78948442     -1.23427889     -1.27046137
    H      0.95442376     -1.10928069     -1.26617265
    C     -0.02082334      0.33274982     -2.53354552
    H      0.81415131      1.03272120     -2.56435060
    H      0.02130287     -0.27809118     -3.43419611
    H     -0.94190930      0.91436273     -2.56794589
    C     -3.89909405      1.62381142     -2.53343267
    H     -3.39176608      0.65982163     -2.56777141
    H     -4.97210724      1.43460445     -2.56364616
    H     -3.63084459      2.17374237     -3.43436852
    C     -3.52243702      2.38950312     -1.27196217
    H     -4.02250858      3.36080932     -1.26676836
    H     -2.44967052      2.59726410     -1.27112817
    C     -3.88542842      1.63551881      0.00016168
    H     -4.95909770      1.42488085      0.00061435
    H     -3.38264325      0.66380724      0.00033426
    C     -3.52159016      2.39029856      1.27157341
    H     -4.02126360      3.36181618      1.26594112
    H     -2.44873611      2.59763260      1.27017070
    C     -3.89809001      1.62554194      2.53364820
    H     -3.39149162      0.66115673      2.56808754
    H     -3.62895583      2.17561764      3.43419493
    H     -4.97124400      1.43714971      2.56447729
 
 
 
