#p b3lyp 6-311+g(3df,2p) scf=tight nosymm

35_Neopentane-Pentane_2_z_-30

0    1
    C     -4.59613301      0.33317179     -2.53279144
    H     -5.54327551      0.87146019     -2.56636702
    H     -3.79546176      1.07231283     -2.56185371
    H     -4.52351617     -0.27342503     -3.43414516
    C     -4.50308327     -0.51641989     -1.27222649
    H     -3.56187238     -1.07148432     -1.26995813
    H     -5.29934000     -1.26427615     -1.27093556
    C     -4.59761883      0.31503147     -0.00000000
    H     -3.80386963      1.06860544      0.00010859
    H     -5.54153070      0.86825773     -0.00013796
    C     -4.50342682     -0.51633499      1.27233304
    H     -3.56239110     -1.07170803      1.27021694
    H     -5.29991144     -1.26395633      1.27110571
    C     -4.59613757      0.33355815      2.53269396
    H     -5.54296382      0.87242927      2.56609306
    H     -4.52387795     -0.27280919      3.43423360
    H     -3.79502756      1.07223622      2.56153158
    C      0.43104588     -0.00014401      0.00000519
    C      1.83482192     -0.59900871     -0.00014947
    H      1.99239606     -1.21899539     -0.88377577
    H      2.59197870      0.18635176      0.00127890
    H      1.99163927     -1.22143215      0.88198746
    C      0.24549094      0.86431685     -1.24439640
    H     -0.75314500      1.30235074     -1.26690135
    H      0.97236550      1.67778072     -1.26437740
    H      0.37489255      0.27273707     -2.15201233
    C      0.24345711      0.85900126      1.24777423
    H     -0.75482251      1.29798166      1.26988909
    H      0.97110529      1.67161491      1.27301331
    H      0.37013456      0.26330284      2.15300054
    C     -0.60179524     -1.12422527     -0.00323020
    H     -0.49019613     -1.75737836      0.87824597
    H     -1.61537087     -0.72054687     -0.00268328
    H     -0.48943492     -1.75305346     -0.88770518
 
 
 
