#p b3lyp 6-311+g(3df,2p) scf=tight nosymm

36_Neopentane-Neopentane_1_z_+30

0    1
    C     -0.00057417      0.00000085      0.00002468
    C     -0.50898701      1.43939132      0.00000000
    H     -0.15844456      1.97520031     -0.88334658
    H     -1.59953224      1.46835511      0.00079969
    H     -0.15707859      1.97559265      0.88255257
    C     -0.50818947     -0.71998623     -1.24673382
    H     -0.15711250     -1.75270687     -1.26899887
    H     -1.59872386     -0.73430220     -1.27250294
    H     -0.15630502     -0.22362316     -2.15230228
    C     -0.50829199     -0.71999299      1.24667256
    H     -0.15580238     -1.75221633      1.26975632
    H     -1.59882185     -0.73583143      1.27144830
    H     -0.15793150     -0.22267437      2.15230581
    C      1.52581518      0.00058748      0.00004795
    H      1.91399138      0.50986887      0.88324855
    H      1.91449560     -1.01872864     -0.00062685
    H      1.91397586      0.51106100     -0.88246923
    C     -5.02404835     -2.65211709      0.00001192
    C     -3.86448458     -3.64500034     -0.00152879
    H     -2.90532429     -3.12522228     -0.00259771
    H     -3.89984888     -4.28491157      0.88137220
    H     -3.90203504     -4.28465273     -0.88453106
    C     -4.94354980     -1.77627467      1.24771694
    H     -5.76323897     -1.05666814      1.27080326
    H     -5.00070464     -2.38305501      2.15260129
    H     -4.00572590     -1.21955346      1.27413297
    C     -6.34600088     -3.41516557     -0.00052255
    H     -7.19189995     -2.72634205      0.00206175
    H     -6.42659192     -4.05293434      0.88084553
    H     -6.42847339     -4.04858552     -0.88484474
    C     -4.94430229     -1.77331308     -1.24568065
    H     -4.99908377     -2.37818249     -2.15200105
    H     -5.76565765     -1.05558128     -1.26795227
    H     -4.00775590     -1.21433500     -1.26985290
 
 
 
