#p b3lyp 6-311+g(3df,2p) scf=tight nosymm

36_Neopentane-Neopentane_2_z_+30

0    1
    C     -5.30421700      0.00000085     -0.00002468
    C     -4.79580415      1.43939132      0.00000000
    H     -5.14634660      1.97520031      0.88334658
    H     -3.70525893      1.46835511     -0.00079969
    H     -5.14771257      1.97559265     -0.88255257
    C     -4.79660170     -0.71998623      1.24673382
    H     -5.14767867     -1.75270687      1.26899887
    H     -3.70606730     -0.73430220      1.27250294
    H     -5.14848614     -0.22362316      2.15230228
    C     -4.79649917     -0.71999299     -1.24667256
    H     -5.14898879     -1.75221633     -1.26975632
    H     -3.70596932     -0.73583143     -1.27144830
    H     -5.14685966     -0.22267437     -2.15230581
    C     -6.83060635      0.00058748     -0.00004795
    H     -7.21878255      0.50986887     -0.88324855
    H     -7.21928676     -1.01872864      0.00062685
    H     -7.21876702      0.51106100      0.88246923
    C      0.40399660     -0.00026376     -0.00001192
    C      0.68407683     -1.50091707      0.00152879
    H     -0.24564432     -2.07168522      0.00259771
    H      1.25593836     -1.79024630     -0.88137220
    H      1.25680728     -1.78822361      0.88453106
    C     -0.39475446      0.36794366     -1.24771694
    H     -0.60810741      1.43761857     -1.27080326
    H      0.15931015      0.11405103     -2.15260129
    H     -1.34580112     -0.16587506     -1.27413297
    C      1.72579223      0.76305647      0.00052255
    H      1.55220310      1.84003832     -0.00206175
    H      2.31841171      0.51396598     -0.88084553
    H      2.31558625      0.51776979      0.88484474
    C     -0.39694303      0.37007613      1.24568065
    H      0.15427999      0.11508358      2.15200105
    H     -0.60783932      1.44025664      1.26795227
    H     -1.34930544     -0.16150780      1.26985290
 
 
 
