#p b3lyp 6-311+g(3df,2p) scf=tight nosymm

37_Cyclopentane-Neopentane_1_y_-30

0    1
    C      0.28586422     -0.37923179      1.18716033
    H      1.37346738     -0.38823650      1.28081663
    H     -0.12966762     -0.70230647      2.14066723
    C     -0.19546490      1.02087418      0.77242971
    H      0.43666789      1.80659477      1.18170429
    H     -1.20212399      1.19524576      1.15156723
    C     -0.20058412      1.01831468     -0.77747509
    H      0.46027693      1.77801029     -1.19044444
    H     -1.20071873      1.23288953     -1.15262285
    C      0.23225950     -0.39943494     -1.19426516
    H      1.31212607     -0.42931535     -1.34974876
    H     -0.24121381     -0.72912136     -2.11799959
    C     -0.12131599     -1.26729972      0.01277628
    H      0.37977327     -2.23430943      0.00882383
    H     -1.19762821     -1.44868896      0.03977598
    C     -4.63988972     -0.00024696     -2.33213164
    C     -5.93843143     -0.25364204     -3.09315646
    H     -6.78786063      0.18587089     -2.56845371
    H     -5.89463090      0.18313837     -4.09181516
    H     -6.12336414     -1.32345785     -3.19965122
    C     -4.41250362      1.50360790     -2.20085638
    H     -3.48829639      1.71234087     -1.66006812
    H     -4.34186022      1.97288921     -3.18323639
    H     -5.23401752      1.97488861     -1.65927665
    C     -3.47512636     -0.62631776     -3.09541632
    H     -2.53017857     -0.45302310     -2.57882302
    H     -3.39466429     -0.19966304     -4.09638609
    H     -3.61135923     -1.70410003     -3.19738844
    C     -4.73817477     -0.62359568     -0.94182638
    H     -4.89323688     -1.70155638     -1.00889448
    H     -3.82643938     -0.44891771     -0.36911075
    H     -5.57284817     -0.19609167     -0.38416974
 
 
 
