#p b3lyp 6-311+g(3df,2p) scf=tight nosymm

38_Cyclopentane-Cyclopentane_1_z_+30

0    1
    C     -0.16350750      1.28579828     -0.00000000
    H      0.69900153      1.94562917     -0.08441598
    H     -1.04307347      1.92225070      0.07989448
    C     -0.23597704      0.33915948     -1.22612961
    H      0.62111032      0.50539454     -1.87799770
    H     -1.12910482      0.50528862     -1.82613393
    C     -0.18175240     -1.08437906     -0.65047495
    H      0.26863337     -1.80028525     -1.33624028
    H     -1.18988650     -1.43577636     -0.42124062
    C      0.59408914     -0.91372978      0.65406377
    H      1.65370782     -0.75979591      0.43637061
    H      0.50914904     -1.76806155      1.32415239
    C     -0.01160612      0.36731027      1.22610685
    H      0.58808357      0.81593487      2.01632047
    H     -0.99246936      0.13902078      1.64679706
    C     -3.70553335     -2.56417420      1.10357816
    H     -2.62306901     -2.42257465      1.08007410
    H     -3.95588687     -3.03235759      2.05426393
    C     -4.41948125     -1.21967921      0.89538025
    H     -3.86748296     -0.38992971      1.33369680
    H     -5.39602258     -1.24288247      1.37810640
    C     -4.58783103     -1.07215082     -0.63908728
    H     -4.08194491     -0.18862144     -1.02450353
    H     -5.64190964     -0.97075958     -0.89405447
    C     -4.01634324     -2.36615397     -1.24660750
    H     -2.96348966     -2.22821210     -1.49899994
    H     -4.53452929     -2.66921542     -2.15486809
    C     -4.12637118     -3.38550261     -0.11344631
    H     -3.51465830     -4.27284862     -0.27031886
    H     -5.16456622     -3.70709238     -0.00121957
 
 
 
