#p b3lyp 6-311+g(3df,2p) scf=tight nosymm

39_Benzene-Cyclopentane_1_z_+30

0    1
    C     -0.43814049     -1.32303806     -0.00017976
    H     -0.77620098     -2.35053745     -0.00036914
    C     -0.32793570     -0.62556641     -1.20182239
    H     -0.58120459     -1.11159820     -2.13440044
    C      0.10969064      0.69774771     -1.20166175
    H      0.19442327      1.23942759     -2.13393124
    C      0.43795216      1.32314805      0.00000161
    H      0.77651844      2.35020793     -0.00000000
    C      0.32842623      0.62540360      1.20186364
    H      0.58257479      1.11089111      2.13420885
    C     -0.11009465     -0.69760281      1.20183382
    H     -0.19489787     -1.23948803      2.13407283
    C     -4.26557187     -0.71087975      0.09912133
    H     -3.26759434     -0.32213099      0.31043709
    H     -4.95571028      0.13137664      0.06398498
    C     -4.24613261     -1.52138532     -1.19963228
    H     -3.64382401     -1.05258731     -1.97614653
    H     -5.26281987     -1.61320958     -1.58450251
    C     -3.70931412     -2.91402844     -0.79274324
    H     -2.69365585     -3.06596540     -1.15465180
    H     -4.32231630     -3.70565152     -1.22104515
    C     -3.75169047     -2.94715173      0.75203302
    H     -2.74957278     -2.78915014      1.15210603
    H     -4.11554412     -3.89654491      1.14155879
    C     -4.63422222     -1.75956719      1.14572558
    H     -4.46886120     -1.42864966      2.17032204
    H     -5.68949885     -2.02459149      1.04426206
 
 
 
