#p b3lyp 6-311+g(3df,2p) scf=tight nosymm

39_Benzene-Cyclopentane_1_y_+30

0    1
    C     -0.43814049     -1.32303806     -0.00017976
    H     -0.77620098     -2.35053745     -0.00036914
    C     -0.32793570     -0.62556641     -1.20182239
    H     -0.58120459     -1.11159820     -2.13440044
    C      0.10969064      0.69774771     -1.20166175
    H      0.19442327      1.23942759     -2.13393124
    C      0.43795216      1.32314805      0.00000161
    H      0.77651844      2.35020793     -0.00000000
    C      0.32842623      0.62540360      1.20186364
    H      0.58257479      1.11089111      2.13420885
    C     -0.11009465     -0.69760281      1.20183382
    H     -0.19489787     -1.23948803      2.13407283
    C     -3.44283705      1.16412443      1.80488268
    H     -2.42036287      1.00180197      1.45856336
    H     -3.61330132      2.23860908      1.86272831
    C     -4.42859362      0.45248640      0.87433800
    H     -4.16212381      0.55732308     -0.17614984
    H     -5.42330525      0.88130789      1.00422517
    C     -4.42556739     -1.02198717      1.34242581
    H     -3.91056860     -1.66139757      0.62719510
    H     -5.44225283     -1.40105178      1.43484897
    C     -3.69930433     -1.02948461      2.70687160
    H     -2.67926286     -1.39371006      2.57991491
    H     -4.18853100     -1.66975640      3.43911237
    C     -3.65011767      0.44025965      3.13307069
    H     -2.87050719      0.64416212      3.86606445
    H     -4.60706579      0.73838019      3.56840496
 
 
 
