#p b3lyp 6-311+g(3df,2p) scf=tight nosymm

42_Uracil-Cyclopentane_2_z_+30

0    1
    N     -3.55734662     -0.91522532      0.03030527
    H     -3.30774350     -1.89500596      0.03735843
    C     -3.66855909     -0.29900472      1.28549724
    O     -3.47154683     -0.93517443      2.30628785
    C     -4.02269255      1.10746513      1.20516116
    H     -4.13313347      1.66639768      2.11823395
    C     -4.20880336      1.68309417     -0.00000000
    H     -4.47238643      2.72429524     -0.11134963
    N     -4.07013268      0.98103344     -1.16805725
    H     -4.19912495      1.42495520     -2.06203204
    C     -3.72673421     -0.35955699     -1.22068719
    O     -3.58979358     -0.96991656     -2.26248098
    C      1.14999741     -0.89123361     -0.70522265
    H      0.42352507     -1.57665020     -1.14454941
    H      2.13633905     -1.20623042     -1.04150447
    C      0.79890295      0.53636247     -1.12724271
    H      0.53356270      0.61791191     -2.18047681
    H      1.64480489      1.20201554     -0.93958388
    C     -0.34595554      0.88624799     -0.17897127
    H     -1.24629246      0.35394697     -0.49357659
    H     -0.58320569      1.94922756     -0.15278797
    C      0.14155018      0.34973317      1.17301289
    H     -0.67593255      0.09842566      1.84670108
    H      0.74181419      1.11302331      1.66853674
    C      1.02254560     -0.87860665      0.83241394
    H      0.58527611     -1.80024269      1.21249437
    H      2.00289189     -0.78125806      1.29636011
 
 
 
