#p b3lyp 6-311+g(3df,2p) scf=tight nosymm

42_Uracil-Cyclopentane_1_y_+30

0    1
    N     -0.22313579     -0.91522532     -0.03030527
    H     -0.47273891     -1.89500596     -0.03735843
    C     -0.11192331     -0.29900472     -1.28549724
    O     -0.30893558     -0.93517443     -2.30628785
    C      0.24221014      1.10746513     -1.20516116
    H      0.35265105      1.66639768     -2.11823395
    C      0.42832095      1.68309417      0.00000000
    H      0.69190402      2.72429524      0.11134963
    N      0.28965027      0.98103344      1.16805725
    H      0.41864253      1.42495520      2.06203204
    C     -0.05374820     -0.35955699      1.22068719
    O     -0.19068883     -0.96991656      2.26248098
    C     -3.71227153     -1.06991934      2.53632565
    H     -2.65095980     -1.30027135      2.43086789
    H     -4.14748923     -1.83588540      3.17590351
    C     -3.85610789      0.34196236      3.10667640
    H     -3.16579760      0.54525637      3.92429556
    H     -4.87260000      0.49548386      3.47685864
    C     -3.62310462      1.21740135      1.87718236
    H     -2.56005616      1.20658361      1.62670599
    H     -3.91854232      2.25659374      2.01751953
    C     -4.43240825      0.50901303      0.78329720
    H     -4.04732096      0.70011571     -0.21694117
    H     -5.46088251      0.86990968      0.80490544
    C     -4.39096861     -0.99525817      1.15266179
    H     -3.85397659     -1.57478365      0.40375023
    H     -5.40035458     -1.40112496      1.19971216
 
 
 
