#p b3lyp 6-311+g(3df,2p) scf=tight nosymm

42_Uracil-Cyclopentane_1_z_+30

0    1
    N     -0.22313579     -0.91522532     -0.03030527
    H     -0.47273891     -1.89500596     -0.03735843
    C     -0.11192331     -0.29900472     -1.28549724
    O     -0.30893558     -0.93517443     -2.30628785
    C      0.24221014      1.10746513     -1.20516116
    H      0.35265105      1.66639768     -2.11823395
    C      0.42832095      1.68309417      0.00000000
    H      0.69190402      2.72429524      0.11134963
    N      0.28965027      0.98103344      1.16805725
    H      0.41864253      1.42495520      2.06203204
    C     -0.05374820     -0.35955699      1.22068719
    O     -0.19068883     -0.96991656      2.26248098
    C     -3.23808566     -2.85216225      0.70522265
    H     -2.28126131     -2.56572705      1.14454941
    H     -3.45846124     -3.86385758      1.04150447
    C     -4.29887290     -1.83430749      1.12724271
    H     -4.23682666     -1.56374138      2.18047681
    H     -5.29829634     -2.23405353      0.93958388
    C     -4.02945341     -0.66788820      0.17897127
    H     -3.11829874     -0.15432406      0.49357659
    H     -4.83139565      0.06906624      0.15278797
    C     -3.80857080     -1.35833794     -1.17301289
    H     -3.18219076     -0.77603089     -1.84670108
    H     -4.76973146     -1.49653676     -1.66853674
    C     -3.18529503     -2.73547227     -0.83241394
    H     -2.16850006     -2.81760381     -1.21249437
    H     -3.75977452     -3.53580276     -1.29636011
 
 
 
