#p b3lyp 6-311+g(3df,2p) scf=tight nosymm

43_Uracil-Neopentane_2_z_+30

0    1
    N     -4.14480597     -0.91419328      0.02988765
    H     -3.83761055     -1.87729017      0.03710340
    C     -4.28547813     -0.30516999      1.28457155
    O     -4.06728135     -0.93444062      2.30586447
    C     -4.69481619      1.08627230      1.20590488
    H     -4.84657104      1.63408971      2.11977839
    C     -4.86868076      1.66465762     -0.00000000
    H     -5.16608528      2.69680619     -0.11098557
    N     -4.67407661      0.97749288     -1.16791680
    H     -4.77929922      1.42788878     -2.06167000
    C     -4.27864056     -0.34854421     -1.22002579
    O     -4.07602090     -0.93987739     -2.26230183
    C      0.58530582     -0.00031593      0.00045294
    C      0.83001290      0.83641121      1.25325225
    H      1.82804752      0.65275703      1.65350106
    H      0.74539834      1.90148738      1.03203387
    H      0.10456332      0.59162023      2.03042515
    C      1.61426960      0.36232443     -1.06695365
    H      1.45786746     -0.22609617     -1.97214959
    H      1.54332679      1.41812779     -1.33264592
    H      2.62709959      0.17095534     -0.70985042
    C     -0.81691962      0.28288347     -0.53356778
    H     -1.01641661     -0.30983927     -1.42824117
    H     -0.92480366      1.33729244     -0.79430156
    H     -1.57299647      0.04353297      0.21677830
    C      0.71232745     -1.48196561      0.34690800
    H      0.00345892     -1.76391047      1.12724266
    H      0.52433074     -2.10030438     -0.53295317
    H      1.71639578     -1.70772926      0.70906744
 
 
 
