#p b3lyp 6-311+g(3df,2p) scf=tight nosymm

43_Uracil-Neopentane_1_y_+30

0    1
    N     -0.22961107     -0.91419328     -0.02988765
    H     -0.53680650     -1.87729017     -0.03710340
    C     -0.08893892     -0.30516999     -1.28457155
    O     -0.30713569     -0.93444062     -2.30586447
    C      0.32039915      1.08627230     -1.20590488
    H      0.47215400      1.63408971     -2.11977839
    C      0.49426371      1.66465762      0.00000000
    H      0.79166824      2.69680619      0.11098557
    N      0.29965957      0.97749288      1.16791680
    H      0.40488217      1.42788878      2.06167000
    C     -0.09577648     -0.34854421      1.22002579
    O     -0.29839615     -0.93987739      2.26230183
    C     -4.42248722     -0.00031317      2.18677155
    C     -5.59473066      0.60196025      1.41695858
    H     -6.46385644     -0.05610625      1.45658107
    H     -5.88185207      1.56665055      1.83816918
    H     -5.33323233      0.75268983      0.36858048
    C     -4.81753465     -0.20073930      3.64738725
    H     -3.99284148     -0.63212542      4.21648067
    H     -5.08865767      0.74908464      4.11071521
    H     -5.67284351     -0.87288479      3.72885276
    C     -3.22643672      0.94605742      2.11286548
    H     -2.37282080      0.53249297      2.65310995
    H     -3.47172928      1.91314439      2.55555465
    H     -2.93091031      1.11681223      1.07581822
    C     -4.04940785     -1.34697025      1.57132223
    H     -3.78583807     -1.23670740      0.51809729
    H     -3.20073118     -1.78846898      2.09731470
    H     -4.88578029     -2.04452147      1.63601638
 
 
 
