#p b3lyp 6-311+g(3df,2p) scf=tight nosymm

43_Uracil-Neopentane_1_y_-30

0    1
    N     -0.22961107     -0.91419328     -0.02988765
    H     -0.53680650     -1.87729017     -0.03710340
    C     -0.08893892     -0.30516999     -1.28457155
    O     -0.30713569     -0.93444062     -2.30586447
    C      0.32039915      1.08627230     -1.20590488
    H      0.47215400      1.63408971     -2.11977839
    C      0.49426371      1.66465762      0.00000000
    H      0.79166824      2.69680619      0.11098557
    N      0.29965957      0.97749288      1.16791680
    H      0.40488217      1.42788878      2.06167000
    C     -0.09577648     -0.34854421      1.22002579
    O     -0.29839615     -0.93987739      2.26230183
    C     -4.51493043     -0.00031317     -2.18755606
    C     -4.43437456      0.60196025     -3.58765515
    H     -4.90325153     -0.05610625     -4.32052891
    H     -4.94271435      1.56665055     -3.62570429
    H     -3.39570333      0.75268983     -3.88538000
    C     -5.97738444     -0.20073930     -1.79936932
    H     -6.05788721     -0.63212542     -0.80061738
    H     -6.51419973      0.74908464     -1.80250476
    H     -6.47559007     -0.87288479     -2.49935577
    C     -3.85290065      0.94605742     -1.18869898
    H     -3.89395812      0.53249297     -0.17932368
    H     -4.35892699      1.91314439     -1.17978399
    H     -2.80702816      1.11681223     -1.45128924
    C     -3.79539599     -1.34697025     -2.17218451
    H     -2.75149155     -1.23670740     -2.47053886
    H     -3.82658050     -1.78846898     -1.17421272
    H     -4.26960899     -2.04452147     -2.86415721
 
 
 
