#p b3lyp 6-311+g(3df,2p) scf=tight nosymm

46_Peptide-Pentane_1_y_+30

0    1
    C     -0.25275624      1.06606814      1.54416992
    H     -0.33857438      2.07669079      1.15082954
    H      0.61866379      1.01210593      2.19424056
    H     -1.12855042      0.83471348      2.14370370
    C     -0.11648535      0.01424118      0.46865252
    O     -0.25356193     -1.17863823      0.70806040
    N      0.17993924      0.49297371     -0.77131981
    H      0.30189763      1.48288781     -0.88117614
    C      0.42223637     -0.38279755     -1.89620933
    H      0.23201968     -1.39607380     -1.55614155
    H     -0.24621424     -0.15100243     -2.72303269
    H      1.45364063     -0.31253800     -2.23872627
    C     -3.27460400      0.25235297      4.26266942
    H     -2.54785477      1.04505454      4.08184343
    H     -4.19124725      0.72523414      4.61582439
    H     -2.89021723     -0.37423681      5.06602798
    C     -3.53142347     -0.55123362      2.99431781
    H     -4.26199171     -1.33658817      3.20183394
    H     -2.61699567     -1.05470600      2.67450846
    C     -4.04633573      0.31446680      1.85207242
    H     -4.94985204      0.84259386      2.17308494
    H     -3.30679492      1.08869079      1.62296603
    C     -4.34725323     -0.47783195      0.58706617
    H     -5.10301313     -1.23402652      0.81169687
    H     -3.44808339     -1.01843781      0.28555077
    C     -4.83384086      0.41034899     -0.55023649
    H     -4.08220088      1.16032632     -0.79957910
    H     -5.04796814     -0.16437866     -1.45068670
    H     -5.74483589      0.93888132     -0.26856680
 
 
 
