#p b3lyp 6-311+g(3df,2p) scf=tight nosymm

49_Benzene-Pyridine_TS_2_z_-30

0    1
    C     -2.53254452      1.19524262     -0.71535551
    H     -2.57783162      2.12196101     -1.27120780
    C     -2.46959877     -0.02079865     -1.39408463
    H     -2.46229593     -0.03674450     -2.47528226
    C     -2.41646635     -1.21627642     -0.67865542
    H     -2.36987188     -2.15965929     -1.20533400
    C     -2.42343136     -1.19532997      0.71542263
    H     -2.38222495     -2.12248588      1.27060594
    C     -2.48344695      0.02103934      1.39405121
    H     -2.48667535      0.03757495      2.47526534
    C     -2.53940497      1.21614311      0.67862166
    H     -2.58963996      2.15911501      1.20595349
    N      3.81680392     -0.36357047      0.08695191
    C      3.22277074      0.83671561      0.03282904
    H      3.88684766      1.69233756      0.01509689
    C      1.84242748      1.01710739      0.00000000
    H      1.42325767      2.01242522     -0.04331584
    C      1.01849850     -0.10351107      0.02408907
    H     -0.05743281      0.00000000      0.00000000
    C      1.62014871     -1.35653103      0.08006808
    H      1.02754594     -2.26042670      0.10081818
    C      3.01042451     -1.43362090      0.10949859
    H      3.50381189     -2.39692018      0.15318937
 
 
 
