#p b3lyp 6-311+g(3df,2p) scf=tight nosymm

51_Ethyne-Ethyne_TS_1_z_+30

0    1
    C     -0.00022201      0.60592168     -0.00002573
    H      0.00247925      1.66794022     -0.00000000
    C      0.00022201     -0.60592168      0.00002573
    H      0.00363687     -1.66794248      0.00013032
    C     -3.60852394     -1.88937893     -0.00385915
    H     -2.68713290     -1.35761442      0.00000000
    C     -4.65833939     -2.49518161     -0.00840194
    H     -5.57759405     -3.02585234     -0.01253572
 
 
 
