#p b3lyp 6-311+g(3df,2p) scf=tight nosymm

52_Benzene-AcOH_OH-pi_2_z_-30

0    1
    C     -3.91961596      0.69782353      1.20697577
    H     -3.92292174      0.15611512      2.14270698
    C     -3.95195175      2.09196921      1.20677651
    H     -3.98342584      2.63203152      2.14298957
    C     -3.93654452      2.78958018     -0.00012837
    H     -3.95510830      3.87060077      0.00000000
    C     -3.89284285      2.09322325     -1.20716819
    H     -3.87820400      2.63429579     -2.14321434
    C     -3.86013741      0.69911747     -1.20731408
    H     -3.81632550      0.15804549     -2.14235590
    C     -3.87093554      0.00000000     -0.00000000
    H     -3.82298275     -1.07940794      0.00001960
    C      0.20036230      0.00000000      0.00000000
    O     -0.82120287     -0.64472158     -0.07153196
    O      0.22265563      1.34863749      0.05735850
    H     -0.70562013      1.63953829      0.02747129
    C      1.58979397     -0.56470192      0.03454670
    H      1.54218564     -1.64670670      0.01026958
    H      2.15387678     -0.19506504     -0.81871205
    H      2.09957237     -0.22946436      0.93459009
 
 
 
