#p b3lyp 6-311+g(3df,2p) scf=tight nosymm

53_Benzene-AcNH2_NH-pi_2_z_+30

0    1
    C     -2.48666901     -0.00082879      0.69768646
    H     -2.27936258     -0.92090225      1.22634683
    C     -2.74863686      1.17849576      1.39395676
    H     -2.75754946      1.17712186      2.47556956
    C     -2.99987945      2.35967619      0.69696271
    H     -3.20262961      3.27436482      1.23736771
    C     -2.99182252      2.36140886     -0.69696271
    H     -3.18821648      3.27742015     -1.23741409
    C     -2.73258949      1.18192207     -1.39393457
    H     -2.72869061      1.18318362     -2.47552085
    C     -2.47874407      0.00082879     -0.69768646
    H     -2.26481183     -0.91778036     -1.22616309
    C      1.59819086     -1.20778168      0.04517438
    O      1.00353127     -2.27523094      0.00943454
    N      0.95718716     -0.00848523      0.00903520
    H     -0.04971298      0.00000000      0.00000000
    H      1.45730651      0.85531752      0.08372823
    C      3.10473170     -1.13302046      0.14312882
    H      3.40276221     -1.46845468      1.13432064
    H      3.49969990     -0.13453429     -0.02680118
    H      3.53172604     -1.82085387     -0.58075742
 
 
 
