#p b3lyp 6-311+g(3df,2p) scf=tight nosymm

53_Benzene-AcNH2_NH-pi_1_z_+30

0    1
    C      0.00396247     -0.00082879     -0.69768646
    H     -0.20334396     -0.92090225     -1.22634683
    C      0.26593032      1.17849576     -1.39395676
    H      0.27484292      1.17712186     -2.47556956
    C      0.51717291      2.35967619     -0.69696271
    H      0.71992307      3.27436482     -1.23736771
    C      0.50911599      2.36140886      0.69696271
    H      0.70550994      3.27742015      1.23741409
    C      0.24988295      1.18192207      1.39393457
    H      0.24598407      1.18318362      2.47552085
    C     -0.00396247      0.00082879      0.69768646
    H     -0.21789471     -0.91778036      1.22616309
    C     -2.21935283     -3.27237070     -0.04517438
    O     -0.99758485     -3.29110502     -0.00943454
    N     -2.93747216     -2.11759699     -0.00903520
    H     -2.44137052     -1.24135327      0.00000000
    H     -3.93560696     -2.11881167     -0.08372823
    C     -3.03736837     -4.53969273     -0.14312882
    H     -2.89588906     -4.96551183     -1.13432064
    H     -4.09956685     -4.38250213      0.02680118
    H     -2.65518432     -5.25339738      0.58075742
 
 
 
