#p b3lyp 6-311+g(3df,2p) scf=tight nosymm

54_Benzene-Water_OH-pi_2_y_-30

0    1
    C     -3.45204054      0.69317962     -1.20755689
    H     -3.50849519      1.23055539     -2.14414463
    C     -3.30352593     -0.69294537     -1.20789541
    H     -3.24210656     -1.23032426     -2.14405407
    C     -3.22976142     -1.38637524     -0.00000000
    H     -3.11312014     -2.46136618     -0.00000000
    C     -3.30352594     -0.69294537      1.20789541
    H     -3.24210656     -1.23032426      2.14405407
    C     -3.45204054      0.69317962      1.20755689
    H     -3.50849519      1.23055539      2.14414463
    C     -3.52673752      1.38590147      0.00000000
    H     -3.64439000      2.46096666      0.00000000
    O      0.02716062     -0.03843219      0.02746009
    H     -0.02341147      0.91877682     -0.00173772
    H     -0.77236524     -0.30872868     -0.43414638
 
 
 
