#p b3lyp 6-311+g(3df,2p) scf=tight nosymm

54_Benzene-Water_OH-pi_1_y_-30

0    1
    C      0.07421697      0.69317962      1.20755689
    H      0.13067162      1.23055539      2.14414463
    C     -0.07429764     -0.69294537      1.20789541
    H     -0.13571701     -1.23032426      2.14405407
    C     -0.14806215     -1.38637524      0.00000000
    H     -0.26470343     -2.46136618      0.00000000
    C     -0.07429764     -0.69294537     -1.20789541
    H     -0.13571701     -1.23032426     -2.14405407
    C      0.07421697      0.69317962     -1.20755689
    H      0.13067162      1.23055539     -2.14414463
    C      0.14891395      1.38590147     -0.00000000
    H      0.26656643      2.46096666     -0.00000000
    O     -3.41543212     -0.03843219     -1.71637188
    H     -3.36486003      0.91877682     -1.68717407
    H     -2.61590626     -0.30872868     -1.25476541
 
 
 
