#p b3lyp 6-311+g(3df,2p) scf=tight nosymm

55_Benzene-MeOH_OH-pi_1_z_-30

0    1
    C      0.12672863      1.38894301     -0.00003446
    H      0.21995767      2.46610966      0.00000000
    C      0.06157062      0.69433699      1.20781822
    H      0.10391795      1.23353365      2.14396768
    C     -0.06349565     -0.69441895      1.20739276
    H     -0.11526469     -1.23234759      2.14396588
    C     -0.12361487     -1.38867605      0.00004152
    H     -0.22162519     -2.46561554      0.00009465
    C     -0.06230328     -0.69455742     -1.20736766
    H     -0.11290872     -1.23260825     -2.14394575
    C      0.06278497      0.69417447     -1.20785596
    H      0.10601806      1.23328685     -2.14401594
    O     -3.05760703      2.21528737      0.01437748
    H     -2.21974683      1.74188837      0.01630572
    C     -4.08519480      1.24319505     -0.01483682
    H     -5.03097309      1.77827175     -0.01557717
    H     -4.04250346      0.62057520     -0.91147556
    H     -4.06224022      0.58839706      0.85932490
 
 
 
