#p b3lyp 6-311+g(3df,2p) scf=tight nosymm

56_Benzene-MeNH2_NH-pi_2_y_-30

0    1
    C     -3.86914625     -0.65835298     -1.19841009
    H     -4.07959285     -1.16919652     -2.12805610
    C     -3.85552723     -1.37028665      0.00015124
    H     -4.05211697     -2.43353773      0.00030994
    C     -3.58295953     -0.71181510      1.19861773
    H     -3.56685801     -1.26496445      2.12752047
    C     -3.32624153      0.65835320      1.19825725
    H     -3.11450930      1.16858150      2.12791611
    C     -3.34109370      1.37038204     -0.00011574
    H     -3.14151934      2.43318631     -0.00000000
    C     -3.61127754      0.71188772     -1.19844696
    H     -3.62181184      1.26392618     -2.12832702
    N      0.06381977     -0.66319376     -0.28410174
    H     -0.83415897     -0.70262825     -0.75132002
    H      0.75366655     -0.76258740     -1.01764972
    C      0.21547562      0.64752485      0.34421750
    H      1.18775789      0.70456222      0.83014515
    H      0.12375815      1.50161810     -0.33461384
    H     -0.53978759      0.75908083      1.11970520
 
 
 
