#p b3lyp 6-311+g(3df,2p) scf=tight nosymm

64_Peptide-Ethene_1_z_+30

0    1
    C     -0.27518152     -1.72495784      0.73223655
    H      0.24422677     -1.68761943      1.68714717
    H      0.09816081     -2.56039874      0.14748746
    H     -1.33698581     -1.88582492      0.91123396
    C     -0.12048148     -0.46196867     -0.07915269
    O     -0.40096816     -0.41377721     -1.27018644
    N      0.33122194      0.61926180      0.61526061
    H      0.49532322      0.51822720      1.59982350
    C      0.46084756      1.92130902     -0.00000000
    H      0.44423912      1.77355873     -1.07517322
    H     -0.36087631      2.58397652      0.27225678
    H      1.40108803      2.38572717      0.28724517
    C     -4.12448827     -1.38456608      0.48827479
    H     -4.90098506     -1.57849067      1.21484426
    H     -3.57791310     -0.45601421      0.57800692
    C     -3.84932113     -2.24910844     -0.48836090
    H     -4.39816874     -3.17569007     -0.58255600
    H     -3.07084870     -2.04278010     -1.20926911
 
 
 
