#p b3lyp 6-311+g(3df,2p) scf=tight nosymm

66_MeNH2-Pyridine_2_z_-30

0    1
    N     -3.10940530     -0.16639162     -0.65848319
    H     -2.35693509     -0.00000000     -0.00000000
    H     -3.93761205      0.24641005     -0.24947096
    C     -2.79648083      0.51830779     -1.91164348
    H     -3.60416922      0.35710286     -2.62338530
    H     -2.63319408      1.59745418     -1.82575053
    H     -1.89638419      0.08143731     -2.34131497
    N      0.65082885      0.00000000      0.00000000
    C      0.14716752     -1.06818657     -0.63506446
    H     -0.75082397     -1.49425330     -0.20635941
    C      0.70577075     -1.61352824     -1.78764784
    H      0.24950971     -2.47506544     -2.25379506
    C      1.84778867     -1.02502715     -2.32103373
    H      2.30765024     -1.41889012     -3.21674178
    C      2.38213243      0.08401618     -1.67365913
    H      3.26744850      0.57866605     -2.04702824
    C      1.75221875      0.55473439     -0.52476786
    H      2.14520473      1.41682869      0.00000000
 
 
 
