#p b3lyp 6-311+g(3df,2p) scf=tight nosymm

66_MeNH2-Pyridine_1_y_+30

0    1
    N      0.75247021     -0.16639162      0.65848319
    H      0.00000000      0.00000000     -0.00000000
    H      1.58067696      0.24641005      0.24947096
    C      0.43954574      0.51830779      1.91164348
    H      1.24723413      0.35710286      2.62338530
    H      0.27625899      1.59745418      1.82575053
    H     -0.46055090      0.08143731      2.34131497
    N     -2.96744970      0.00000000      1.17846755
    C     -2.73470983     -1.17690737      1.77740440
    H     -2.46006104     -1.99488773      1.12380989
    C     -2.81351043     -1.36988549      3.15378859
    H     -2.61129759     -2.34412911      3.57530140
    C     -3.14850248     -0.28921964      3.96309731
    H     -3.21609230     -0.40038419      5.03639488
    C     -3.39271775      0.93841194      3.35657126
    H     -3.65583057      1.80944933      3.93960904
    C     -3.29090115      1.03110903      1.97116207
    H     -3.47472679      1.97419759      1.47134411
 
 
 
