#p b3lyp 6-311+g(3df,2p) scf=tight nosymm

66_MeNH2-Pyridine_2_y_+30

0    1
    N     -3.10940530     -0.16639162     -0.65848319
    H     -2.35693509     -0.00000000     -0.00000000
    H     -3.93761205      0.24641005     -0.24947096
    C     -2.79648083      0.51830779     -1.91164348
    H     -3.60416922      0.35710286     -2.62338530
    H     -2.63319408      1.59745418     -1.82575053
    H     -1.89638419      0.08143731     -2.34131497
    N      0.60724468      0.00000000      0.00000000
    C      0.37450481     -1.17690737     -0.59893685
    H      0.09985601     -1.99488773      0.05465765
    C      0.45330541     -1.36988549     -1.97532104
    H      0.25109256     -2.34412911     -2.39683385
    C      0.78829745     -0.28921964     -2.78462976
    H      0.85588728     -0.40038419     -3.85792734
    C      1.03251273      0.93841194     -2.17810372
    H      1.29562555      1.80944933     -2.76114149
    C      0.93069613      1.03110903     -0.79269452
    H      1.11452177      1.97419759     -0.29287657
 
 
 
