$molecule
0    1
    B      0.00000000      0.00000000      1.95087436
    P      0.00000000      0.00000000     -0.02906691
    C      0.85190063     -1.47553518     -0.68967482
    C      0.85190063      1.47553518     -0.68967482
    C     -1.70380127      0.00000000     -0.68967482
   Cl     -0.89690455      1.55348425      2.46346421
   Cl      1.79380910      0.00000000      2.46346421
   Cl     -0.89690455     -1.55348425      2.46346421
    H     -2.21834129     -0.88668169     -0.31636684
    H     -2.21834129      0.88668169     -0.31636684
    H     -1.69841850      0.00000000     -1.78165820
    H      0.34128177      2.36448076     -0.31636684
    H      1.87705952      1.47779907     -0.31636684
    H      0.84920925      1.47087357     -1.78165820
    H      0.84920925     -1.47087357     -1.78165820
    H      1.87705952     -1.47779907     -0.31636684
    H      0.34128177     -2.36448076     -0.31636684
$end
   
$rem
mem_static = 200
mem_total  = 7500
exchange = b3lyp
basis = G3Large
max_scf_cycles = 50
scf_convergence = 7
symmetry = false
xc_grid = 000075000302
$end
