$molecule
0    1
    B      0.00000000      0.00000000      2.08975344
    P      0.00000000      0.00000000      0.00673657
    C      0.84776457     -1.46837131     -0.68951478
    C      0.84776457      1.46837131     -0.68951478
    C     -1.69552914      0.00000000     -0.68951478
    F     -0.66779533      1.15665544      2.44698597
    F      1.33559066      0.00000000      2.44698597
    F     -0.66779533     -1.15665544      2.44698597
    H     -2.22146215     -0.88678612     -0.33511437
    H     -2.22146215      0.88678612     -0.33511437
    H     -1.67887268      0.00000000     -1.78607245
    H      0.34275176      2.36723571     -0.33511437
    H      1.87871038      1.48044959     -0.33511437
    H      0.83943634      1.45394639     -1.78607245
    H      0.83943634     -1.45394639     -1.78607245
    H      1.87871038     -1.48044959     -0.33511437
    H      0.34275176     -2.36723571     -0.33511437
$end
   
$rem
mem_static = 200
mem_total  = 7500
exchange = b3lyp
basis = G3Large
max_scf_cycles = 50
scf_convergence = 7
symmetry = false
xc_grid = 000075000302
$end
