$molecule
0    1
    B      0.00000000      0.00000000     -1.12038187
    P      0.00000000      0.00000000      0.83830849
    H     -0.62359560     -1.08009927      1.50139031
    H     -0.62359560      1.08009927      1.50139031
    H      1.24719120      0.00000000      1.50139031
    H      0.58654848      1.01593177     -1.40736585
    H     -1.17309696      0.00000000     -1.40736585
    H      0.58654848     -1.01593177     -1.40736585
$end
   
$rem
mem_static = 200
mem_total  = 7500
exchange = b3lyp
basis = G3Large
max_scf_cycles = 50
scf_convergence = 7
symmetry = false
xc_grid = 000075000302
$end
