$molecule
0    1
    N      0.00000000      0.00000000      0.66135371
    H      0.00000000      0.00000000      1.65236191
    B      0.00000000      0.00000000     -0.57141002
    H      0.00000000      0.00000000     -1.74230559
$end
   
$rem
mem_static = 200
mem_total  = 7500
exchange = b3lyp
basis = G3Large
max_scf_cycles = 50
scf_convergence = 7
symmetry = false
xc_grid = 000075000302
$end
