$molecule
0    1
    N      0.00000000      0.00000000      0.70207198
    B      0.00000000      0.00000000     -0.68284157
    H     -0.84059309      0.00000000      1.25298885
    H      0.84059309      0.00000000      1.25298885
    H     -1.04634480      0.00000000     -1.26260405
    H      1.04634480      0.00000000     -1.26260405
$end
   
$rem
mem_static = 200
mem_total  = 7500
exchange = b3lyp
basis = G3Large
max_scf_cycles = 50
scf_convergence = 7
symmetry = false
xc_grid = 000075000302
$end
