$molecule
0    1
    N      0.00000000      0.00000000      0.28473734
    H      0.46901589      0.81235935     -0.09491245
    H      0.46901589     -0.81235935     -0.09491245
    H     -0.93803178      0.00000000     -0.09491245
$end
   
$rem
mem_static = 200
mem_total  = 7500
exchange = b3lyp
basis = G3Large
max_scf_cycles = 50
scf_convergence = 7
symmetry = false
xc_grid = 000075000302
$end
