$molecule
0    1
    P      0.00000000      0.00000000     -0.57576950
    H      0.59669292     -1.03350245      0.19192317
    H      0.59669292      1.03350245      0.19192317
    H     -1.19338583      0.00000000      0.19192317
$end
   
$rem
mem_static = 200
mem_total  = 7500
exchange = b3lyp
basis = G3Large
max_scf_cycles = 50
scf_convergence = 7
symmetry = false
xc_grid = 000075000302
$end
