$molecule
0    1
    P      0.00000000      0.00000000     -0.94702400
    C      0.81252668     -1.40733750     -0.05154317
    C      0.81252668      1.40733750     -0.05154317
    C     -1.62505337      0.00000000     -0.05154317
    H     -2.20180469      0.88348264     -0.33333302
    H     -2.20180469     -0.88348264     -0.33333302
    H     -1.48338465      0.00000000      1.03388388
    H      1.86602075     -1.46507748     -0.33333302
    H      0.74169233     -1.28464879      1.03388388
    H      0.33578394     -2.34856011     -0.33333302
    H      0.33578394      2.34856011     -0.33333302
    H      1.86602075      1.46507748     -0.33333302
    H      0.74169233      1.28464879      1.03388388
$end
   
$rem
mem_static = 200
mem_total  = 7500
exchange = b3lyp
basis = G3Large
max_scf_cycles = 50
scf_convergence = 7
symmetry = false
xc_grid = 000075000302
$end
