$molecule
0    1
    C     -1.22475970     -1.16523170      0.00000000
    C     -0.59862084      0.22901461      0.00000000
    C      0.94914617      0.17700390      0.00000000
    C      1.53815024     -0.49178888      1.24116204
    C      1.53815024     -0.49178888     -1.24116204
    C     -1.08831278      0.98772614      1.23509970
    C     -1.08831278      0.98772614     -1.23509970
    H     -0.94016166     -1.73556949      0.88379108
    H     -2.31251342     -1.07956677      0.00000000
    H     -0.94016166     -1.73556949     -0.88379108
    H      1.27863380      1.22262465      0.00000000
    H      1.26385225     -1.54631356      1.28459140
    H      1.21579660     -0.01742417      2.16538022
    H      2.62632525     -0.44133310      1.20736899
    H      1.26385225     -1.54631356     -1.28459140
    H      2.62632525     -0.44133310     -1.20736899
    H      1.21579660     -0.01742417     -2.16538022
    H     -0.88372311      0.44312726      2.15536156
    H     -2.16643742      1.14241772      1.17684496
    H     -0.61143238      1.96723573      1.30456898
    H     -0.88372311      0.44312726     -2.15536156
    H     -0.61143238      1.96723573     -1.30456898
    H     -2.16643742      1.14241772     -1.17684496
$end
   
$rem
mem_static = 200
mem_total  = 7500
exchange = b3lyp
basis = G3Large
max_scf_cycles = 50
scf_convergence = 7
symmetry = false
xc_grid = 000075000302
$end
