$molecule
0    1
    C      0.29678479      0.12840179     -2.55975444
    C      0.44554576     -0.63765683     -1.25064727
    C      0.11513846      0.17749331      0.00000000
    C      0.44554576     -0.63765683      1.25064727
    C      0.29678479      0.12840179      2.55975444
    C     -1.33994697      0.63349718      0.00000000
    H      0.89150973      1.04211755     -2.54127544
    H      0.63439979     -0.47098922     -3.40386322
    H     -0.73764268      0.40729666     -2.75034564
    H      1.47251120     -1.00034131     -1.16402946
    H     -0.19400851     -1.52535739     -1.26673119
    H      0.75693886      1.06640830      0.00000000
    H      1.47251120     -1.00034131      1.16402946
    H     -0.19400851     -1.52535739      1.26673119
    H      0.89150973      1.04211755      2.54127544
    H      0.63439979     -0.47098922      3.40386322
    H     -0.73764268      0.40729666      2.75034564
    H     -2.00391630     -0.23388523      0.00000000
    H     -1.57320710      1.23477197     -0.87655361
    H     -1.57320710      1.23477197      0.87655361
$end
   
$rem
mem_static = 200
mem_total  = 7500
exchange = b3lyp
basis = G3Large
max_scf_cycles = 50
scf_convergence = 7
symmetry = false
xc_grid = 000075000302
$end
