$molecule
0    1
    C     -1.48188605      1.13828881     -1.02803694
    C     -1.29650353     -0.08031842     -0.13106423
    C      0.00000000      0.00000000      0.67359726
    C      1.29650353      0.08031842     -0.13106423
    C      2.48231205      0.21953623      0.81797822
    C     -2.48231205     -0.21953623      0.81797822
    C      1.48188605     -1.13828881     -1.02803694
    H     -1.47686088      2.05049023     -0.42741600
    H     -0.69417423      1.22365854     -1.77514127
    H     -2.43549001      1.09173203     -1.55399365
    H     -1.26337547     -0.97309847     -0.76070439
    H     -0.06176501      0.87454036      1.33103729
    H      0.06176501     -0.87454036      1.33103729
    H      1.26337547      0.97309847     -0.76070439
    H      2.55402193     -0.65655185      1.46517258
    H      2.37766557      1.09766303      1.45523221
    H      3.42036776      0.30820535      0.27013757
    H     -2.55402193      0.65655185      1.46517258
    H     -2.37766557     -1.09766303      1.45523221
    H     -3.42036776     -0.30820535      0.27013757
    H      1.47686088     -2.05049023     -0.42741600
    H      2.43549001     -1.09173203     -1.55399365
    H      0.69417423     -1.22365854     -1.77514127
$end
   
$rem
mem_static = 200
mem_total  = 7500
exchange = b3lyp
basis = G3Large
max_scf_cycles = 50
scf_convergence = 7
symmetry = false
xc_grid = 000075000302
$end
