$molecule
0    1
    C      1.45271864     -0.17755015      1.26347322
    C      1.45271864     -0.17755015     -1.26347322
    C     -1.45271864      0.17755015      1.26347322
    C     -1.45271864      0.17755015     -1.26347322
    C      0.71927216      0.26132394      0.00000000
    C     -0.71927216     -0.26132394      0.00000000
    C      0.71660727      0.26145836     -2.52517325
    C      0.71660727      0.26145836      2.52517325
    C     -0.71660727     -0.26145836     -2.52517325
    C     -0.71660727     -0.26145836      2.52517325
    H      0.69905356      1.35446528     -2.56760268
    H      0.69905356      1.35446528      2.56760268
    H     -0.69905356     -1.35446528     -2.56760268
    H     -0.69905356     -1.35446528      2.56760268
    H     -1.53822888      1.26963420     -1.25549531
    H     -1.53822888      1.26963420      1.25549531
    H      1.53822888     -1.26963420     -1.25549531
    H      1.53822888     -1.26963420      1.25549531
    H     -0.66581421     -1.35942807      0.00000000
    H      0.66581421      1.35942807      0.00000000
    H      1.24764719     -0.08159676     -3.41452766
    H      1.24764719     -0.08159676      3.41452766
    H     -1.24764719      0.08159676     -3.41452766
    H     -1.24764719      0.08159676      3.41452766
    H     -2.47092070     -0.21879461     -1.25557245
    H     -2.47092070     -0.21879461      1.25557245
    H      2.47092070      0.21879461     -1.25557245
    H      2.47092070      0.21879461      1.25557245
$end
   
$rem
mem_static = 200
mem_total  = 7500
exchange = b3lyp
basis = G3Large
max_scf_cycles = 50
scf_convergence = 7
symmetry = false
xc_grid = 000075000302
$end
