$molecule
0    1
    C     -0.78978866      0.56272639      0.00000000
    C     -0.33202658     -0.26637224      1.19719071
    C     -0.33202658     -0.26637224     -1.19719071
    C      1.07357029     -0.73084071     -0.77343966
    C      1.07357029     -0.73084071      0.77343966
    C     -0.35749484      0.46593816      2.52723655
    C     -0.35749484      0.46593816     -2.52723655
    H     -0.26202591      1.52355318      0.00000000
    H     -1.86124151      0.76778282      0.00000000
    H     -0.98381218     -1.14302337      1.26001070
    H     -0.98381218     -1.14302337     -1.26001070
    H      1.32179033     -1.70386480     -1.19531090
    H      1.81219810     -0.02235275     -1.15275573
    H      1.32179033     -1.70386480      1.19531090
    H      1.81219810     -0.02235275      1.15275573
    H      0.27500294      1.35378276      2.47933084
    H      0.01382021     -0.16516468      3.33492334
    H     -1.36652022      0.78486643      2.78846258
    H      0.27500294      1.35378276     -2.47933084
    H     -1.36652022      0.78486643     -2.78846258
    H      0.01382021     -0.16516468     -3.33492334
$end
   
$rem
mem_static = 200
mem_total  = 7500
exchange = b3lyp
basis = G3Large
max_scf_cycles = 50
scf_convergence = 7
symmetry = false
xc_grid = 000075000302
$end
