#p b3lyp 6-311+g(3df,2p) scf=tight nosymm

i10e

0    1
    C     -1.67936485      1.08308260      0.48443099
    C     -2.98062531      1.59983528      0.43587815
    C     -4.03589171      0.81271897     -0.02391662
    C     -3.79243089     -0.49637899     -0.44721884
    C     -2.49170736     -1.00649384     -0.39136984
    C     -1.41112016     -0.24833721      0.08002322
    O     -0.70841057      1.93974639      0.94765819
    C      0.01001754     -0.83728791      0.23761017
    C      1.01290423      0.10125730     -0.48833397
    C      2.24811801      0.46485168     -0.06524171
    C      0.49868223      0.57261722     -1.84644240
    C      3.09508104      1.45847056     -0.84080867
    C      2.96973150     -0.07327952      1.16148514
    C      0.15335192     -2.23213038     -0.41415815
    H      0.17119948      1.57437116      0.72857308
    C      0.19703090     -1.02271416      1.76971812
    H     -3.13996588      2.62658550      0.75744676
    H     -5.04218869      1.22597018     -0.05703213
    H     -4.60393899     -1.11863025     -0.81821334
    H     -2.31885316     -2.02687712     -0.72187448
    H      1.30592453      0.65089147     -2.58170139
    H     -0.24708327     -0.12827257     -2.23543197
    H      0.00072803      1.55036197     -1.77915053
    H      2.52524868      2.06411746     -1.55038192
    H      3.89518496      0.93912873     -1.39327358
    H      3.59412631      2.14001258     -0.13710257
    H      2.92766062     -1.16604819      1.21442496
    H      4.02762087      0.21402207      1.12263126
    H      2.55918059      0.31884292      2.10053329
    H      1.18423469     -2.58010616     -0.27847507
    H     -0.51979120     -2.95756552      0.06050407
    H     -0.06674956     -2.20393605     -1.48757353
    H      1.07951223     -1.62071519      2.00980323
    H      0.26370442     -0.06325344      2.29251297
    H     -0.68112117     -1.55485754      2.15446709
 
 
 
