#p b3lyp 6-311+g(3df,2p) scf=tight nosymm

i10p

0    1
    C     -1.51031025      0.62606097      0.26497407
    C     -2.64798800      0.70649823      1.08994942
    C     -3.84604622      0.11096203      0.69986012
    C     -3.93599116     -0.57865546     -0.51658437
    C     -2.80594137     -0.65830744     -1.33319462
    C     -1.59593989     -0.06330214     -0.95652061
    O     -0.39811711      1.24209639      0.76974343
    C      0.89290405      1.24008454      0.07205807
    C      1.39651041     -0.17414212     -0.28877991
    C      1.22123929     -1.25197092      0.50555608
    C      0.55528809     -1.24312787      1.86529020
    C      1.65656442     -2.65293131      0.11652312
    C      2.16307857     -0.23698383     -1.59369950
    C      0.75466870      2.19596016     -1.13248579
    C      1.85638093      1.87764861      1.08582259
    H     -2.56710235      1.23975776      2.03441948
    H     -4.71466446      0.18480743      1.35202067
    H     -4.87057224     -1.04502807     -0.81997014
    H     -2.85571275     -1.19117830     -2.28139401
    H     -0.73197612     -0.15867719     -1.60121392
    H     -0.46062160     -1.65992442      1.78725764
    H      0.47045508     -0.25399864      2.31364476
    H      1.11759412     -1.89878023      2.54682163
    H      1.78569761     -2.79797688     -0.95987977
    H      2.60065783     -2.92229297      0.61659079
    H      0.90256420     -3.37545739      0.45957533
    H      2.68118452     -1.18755329     -1.73459086
    H      2.92611437      0.55377783     -1.62459116
    H      1.50889400     -0.06827535     -2.46284512
    H      0.09738607      1.79593088     -1.90891210
    H      1.73237857      2.40894394     -1.57661126
    H      0.32754354      3.13560456     -0.76587698
    H      1.93227805      1.26269405      1.98707807
    H      1.51001155      2.88270013      1.35826758
    H      2.85158957      1.95503632      0.63169705
 
 
 
