#p b3lyp 6-311+g(3df,2p) scf=tight nosymm

i13e

0    1
    C     -1.47627461     -1.15315643     -0.29279662
    C     -2.86892202     -1.15881480     -0.29469214
    C     -3.59225929      0.00184956      0.03823895
    C     -2.86824079      1.16159260      0.37328018
    C     -1.47569081      1.15449765      0.37339838
    C     -0.73931169      0.00023490      0.04106344
    C      1.47627461      1.15315643     -0.29279662
    C      0.73931169     -0.00023490      0.04106344
    C      1.47569081     -1.15449765      0.37339838
    C      2.86824079     -1.16159260      0.37328018
    C      3.59225929     -0.00184956      0.03823895
    C      2.86892202      1.15881480     -0.29469214
    N      4.99096262      0.01385261      0.09237160
    N     -4.99096262     -0.01385261      0.09237160
    H     -0.94557574     -2.05784650     -0.58259081
    H     -3.40775822     -2.06659553     -0.56553929
    H     -3.40666769      2.06804518      0.64904295
    H     -0.94443444      2.05992012      0.65973853
    H      0.94557574      2.05784650     -0.58259081
    H      0.94443444     -2.05992012      0.65973853
    H      3.40666769     -2.06804518      0.64904295
    H      3.40775822      2.06659553     -0.56553929
    H      5.43534453     -0.88783675     -0.02463704
    H      5.43454306      0.73126600     -0.46687814
    H     -5.43454306     -0.73126600     -0.46687814
    H     -5.43534453      0.88783675     -0.02463704
 
 
 
