#p b3lyp 6-311+g(3df,2p) scf=tight nosymm

i17e

0    1
    C      0.07509884      1.31682868     -1.30920889
    C     -1.20804591      0.58315103     -1.22894048
    C     -1.04310746     -0.40260553     -0.09485192
    C      0.40191427     -0.27892840      0.41875967
    C      0.96453777      0.91141391     -0.37149557
    C      2.77463776      2.60165929     -0.80165261
    C      2.28358015      1.48675022     -0.08574438
    C      3.10734740      0.94106425      0.92066461
    C      4.36581783      1.48150174      1.19646457
    C      4.83629462      2.58123802      0.47420963
    C      4.03071172      3.13794090     -0.52875413
    C      1.61741485     -1.93794314     -1.07570034
    C      1.16813324     -1.57530589      0.20190002
    C      1.39166681     -2.45267952      1.27180945
    C      2.05554908     -3.66775480      1.07440665
    C      2.50198814     -4.02050302     -0.20340854
    C      2.27967357     -3.15150771     -1.27813421
    C     -5.62864925      1.23111495      0.99955285
    C     -6.24723718      0.22306517      0.25260306
    C     -5.46514501     -0.61458530     -0.55129395
    C     -4.07994928     -0.44702321     -0.60649600
    C     -3.44533820      0.56326082      0.14027572
    C     -4.24255716      1.39944207      0.94117296
    C     -1.97642159      0.77191422      0.09841568
    H      0.23724621      2.12929323     -2.01302634
    H     -1.80501294      0.37430288     -2.11502850
    H     -1.49028266     -1.39260477     -0.13826800
    H      0.40539388     -0.05463358      1.49541450
    H      2.16175127      3.05318086     -1.57834038
    H      2.76616153      0.07670261      1.48243518
    H      4.98072470      1.03751836      1.97733759
    H      5.81662901      3.00245749      0.68809840
    H      4.38386595      3.99690865     -1.09678039
    H      1.45421681     -1.25362734     -1.90579993
    H      1.04417308     -2.17603648      2.26713018
    H      2.22576782     -4.33623402      1.91662496
    H      3.02179728     -4.96370339     -0.36050716
    H      2.62771043     -3.41836682     -2.27459190
    H     -6.22602404      1.88893671      1.62848660
    H     -7.32647982      0.09085974      0.29570903
    H     -5.93605764     -1.40234377     -1.13687778
    H     -3.48411730     -1.10632176     -1.23487270
    H     -3.76526854      2.18722038      1.52275652
    H     -1.61011002      1.58498226      0.72554627
 
 
 
