#p b3lyp 6-311+g(3df,2p) scf=tight nosymm

i21p

0    1
    C      0.62557935     -2.24162600     -0.08612071
    C     -0.17548183     -3.22644234      0.33788311
    H     -0.95971792     -3.03805518      1.07050273
    H     -0.06058023     -4.24667140     -0.02615432
    C      1.71162158     -2.44810392     -1.10790902
    H      2.69787817     -2.23619789     -0.67308194
    H      1.70293191     -3.47369338     -1.49418416
    H      1.58608732     -1.74997953     -1.94756228
    C      0.47250013     -0.83933715      0.47376673
    N      0.26220386      0.17271024     -0.57809150
    C     -1.03496885      0.05657518     -1.27633883
    C     -2.21321981      0.38159336     -0.37936628
    C     -3.10223384     -0.62511842      0.01847724
    C     -4.17849775     -0.33244897      0.86432003
    C     -4.36900985      0.97438793      1.32280976
    C     -3.48180405      1.98532512      0.93070420
    C     -2.40946861      1.69229056      0.08462099
    H     -2.94555602     -1.64267664     -0.33719167
    H     -4.86369313     -1.12293666      1.16556470
    H     -5.20424732      1.20579292      1.98130219
    H     -3.63052416      3.00498668      1.28192527
    H     -1.71670376      2.47012130     -0.22886758
    C      0.98576514      1.33154883     -0.74151360
    C      2.36296098      1.43477295     -0.19658580
    O      0.55192446      2.31281172     -1.35630074
    C      3.09241522      2.56928823      0.04980820
    C      4.39300148      2.16124357      0.46991610
    C      4.37061267      0.79426544      0.43644201
    H      2.72075939      3.57766932     -0.07412724
    H      5.23274103      2.78129108      0.75244390
    O      3.16284800      0.31888582      0.03735331
   Cl      5.57889029     -0.37995920      0.79125740
    H     -0.39518877     -0.80664715      1.14757244
    H      1.35518791     -0.56956166      1.05618083
    H     -1.00760106      0.73139448     -2.13630285
    H     -1.11741196     -0.97749925     -1.63315265
 
 
 
