#p b3lyp 6-311+g(3df,2p) scf=tight nosymm

i24e

1    1
    C     -0.18487763     -0.33153433      0.05824529
    C      0.51180178      0.86636776     -0.52595327
    C      0.40330262     -1.67130738     -0.24154984
    C     -0.01140455      2.23688402      0.02618731
    C      0.47707644      0.81898416     -2.07693711
    C     -0.44241351      2.08389518      1.49602855
    H      0.85168214      2.91484263     -0.00123259
    C     -1.12175125      2.90321768     -0.80180549
    C     -1.61411429      1.10220275      1.61923231
    H      0.39798677      1.71599779      2.10011151
    H     -0.73165605      3.06062388      1.89998733
    C     -1.26537453     -0.24107816      0.95404538
    H     -1.86032088      0.90802899      2.66911592
    H     -2.50799612      1.55544815      1.17297835
    H     -1.30333660     -1.11486185      1.62210488
   Si     -2.98329386     -0.96860401     -0.05041016
    C      1.86898970     -1.72270291      0.28242647
    C      2.70365291     -0.60494355     -0.35583493
    C      2.02876407      0.74552670     -0.07225716
    H     -0.18536492     -2.46892770      0.21796339
    H      0.42722909     -1.83624655     -1.32681297
    H      1.86102599     -1.61251454      1.37454923
    H      2.28452798     -2.70970451      0.04979464
    C      4.15007116     -0.60571636      0.12311146
    H      2.71823181     -0.76917638     -1.44098839
    H      2.08003013      0.95503061      1.00214745
    H      2.55958922      1.55213497     -0.59105878
    C     -4.20939977     -0.92798923      1.38492426
    C     -3.47465999      0.17606466     -1.46384563
    C     -2.65009197     -2.72434247     -0.65051637
    H     -5.17830948     -1.30267166      1.02372973
    H     -3.88709856     -1.57231567      2.21295547
    H     -4.36326681      0.08681188      1.76911529
    H     -4.33206951     -0.29078221     -1.97202754
    H     -3.80014674      1.16289082     -1.11645613
    H     -2.68082947      0.30533185     -2.20822601
    H     -3.59999471     -3.12412884     -1.03598986
    H     -1.91979528     -2.76770797     -1.46652561
    H     -2.31812900     -3.39057280      0.15546889
    H      1.01657861      1.69325366     -2.45759258
    H      0.96258467     -0.07932007     -2.46547172
    H     -0.54843343      0.85873739     -2.45613108
    H     -1.42561398      3.83702618     -0.31362566
    H     -0.78151391      3.14929663     -1.81239115
    H     -2.00553168      2.26623676     -0.89114492
    C      5.15036196     -0.67301357     -0.76283310
    C      4.39863031     -0.52441719      1.61032476
    H      6.19078207     -0.66611729     -0.44252502
    H      4.95845294     -0.73906562     -1.83332345
    H      3.99265126     -1.40354567      2.13154847
    H      5.47138976     -0.47247955      1.82271668
    H      3.92139510      0.36095293      2.05465348
 
 
 
