#p b3lyp 6-311+g(3df,2p) scf=tight nosymm

i7e

0    1
    C     -2.75756724      1.35757302     -0.55503464
    C     -4.25162046      1.26001506     -0.21400480
    C     -4.79737166     -0.12095098     -0.58474324
    C     -4.02779453     -1.19740157      0.19621157
    C     -2.53061399     -1.11031236      0.02313168
    C     -1.87543404      0.27099709      0.11672504
    C     -0.47996344      0.26561108     -0.60212401
    C      0.33619668     -0.99449729     -0.31862123
    C     -0.30726064     -2.15108998     -0.05466545
    C     -1.75841199     -2.21705415     -0.00407615
    C      0.28968908      1.60006108     -0.37998378
    C      1.79736442     -0.91566418     -0.63432282
    C      1.78191278      1.56235161     -0.76462607
    C      2.48191338      0.36875953     -0.10672513
    C     -1.74590914      0.56111795      1.63754864
    C      2.75003532     -2.05428546     -0.22898236
    C      3.93617849      0.11901668     -0.57539378
    C      2.39915483      0.45656173      1.43067818
    C      4.16448611     -1.39339715     -0.27375729
    O     -6.21488842     -0.22756967     -0.37244716
    C      5.00269735      1.04031511      0.01670755
    H     -2.37546855      2.34773029     -0.27784954
    H     -2.64768047      1.26341145     -1.64602323
    H     -4.40927047      1.42223069      0.86418881
    H     -4.81512810      2.03407682     -0.75027583
    H     -4.66500315     -0.28503312     -1.66256139
    H     -4.27815442     -1.04385262      1.26311638
    H     -4.38705524     -2.19690113     -0.07816612
    H     -0.70281271      0.20709209     -1.68595530
    H      0.26050285     -3.07464026      0.04695043
    H     -2.23210444     -3.19903960      0.02990269
    H     -0.21576089      2.39330129     -0.94296617
    H      0.23089115      1.88112781      0.67550558
    H      1.85680235     -0.82496468     -1.73649109
    H      1.89406674      1.46927963     -1.85617070
    H      2.25407902      2.50933526     -0.46488341
    H     -2.70507846      0.38957761      2.13887140
    H     -1.00119597     -0.10916771      2.08267910
    H     -1.45430163      1.60074332      1.82997265
    H      2.66698128     -2.91875053     -0.89766056
    H      2.51130596     -2.39805739      0.78515301
    H      3.93281398      0.25274835     -1.66863528
    H      1.36673459      0.33371944      1.77502556
    H      3.00367726     -0.32570922      1.90388485
    H      2.76805073      1.42958759      1.77926392
    H      4.81140516     -1.85158193     -1.03140545
    H      4.67236833     -1.50718607      0.69287609
    H     -6.36749595     -0.10202306      0.57575007
    H      5.06944823      0.91047553      1.10464554
    H      4.77463900      2.09502007     -0.19014734
    H      5.98995094      0.81729293     -0.41008943
 
 
 
