#p b3lyp 6-311+g(3df,2p) scf=tight nosymm

12

0    2
    O      0.00000000      0.00000000     -0.48734029
    H      0.00000000      0.00000000      0.48734029
 
 
 
