#p b3lyp 6-311+g(3df,2p) scf=tight nosymm

137

0    2
    S      0.00000000      0.00000000     -0.67487233
    H      0.00000000      0.00000000      0.67487233
 
 
 
