#p b3lyp 6-311+g(3df,2p) scf=tight nosymm

18

0    1
   Si      0.00000000      0.00000000      0.00000000
    H      0.85712168     -0.85712168      0.85712168
    H     -0.85712168      0.85712168      0.85712168
    H     -0.85712168     -0.85712168     -0.85712168
    H      0.85712168      0.85712168     -0.85712168
 
 
 
