#p b3lyp 6-311+g(3df,2p) scf=tight nosymm

19

0    2
    P      0.00000000      0.00000000      0.66239873
    H     -1.02371208      0.00000000     -0.33119937
    H      1.02371208      0.00000000     -0.33119937
 
 
 
