#p b3lyp 6-311+g(3df,2p) scf=tight nosymm

20

0    1
    P      0.00000000      0.00000000      0.57921355
    H     -0.59708961      1.03418954     -0.19307118
    H     -0.59708961     -1.03418954     -0.19307118
    H      1.19417922      0.00000000     -0.19307118
 
 
 
