#p b3lyp 6-311+g(3df,2p) scf=tight nosymm

43

0    1
    P      0.00000000      0.00000000      0.94928255
    P      0.00000000      0.00000000     -0.94928255
 
 
 
