#p b3lyp 6-311+g(3df,2p) scf=tight nosymm

b

0    2
    B      0.00000000      0.00000000      0.00000000
 
 
 
