#p b3lyp 6-311+g(3df,2p) scf=tight nosymm

be+

1     2
   Be      0.00000000      0.00000000      0.00000000
 
 
 
