#p b3lyp 6-311+g(3df,2p) scf=tight nosymm

f+

1     3
    F      0.00000000      0.00000000      0.00000000
 
 
 
