#p b3lyp 6-311+g(3df,2p) scf=tight nosymm

IP_68

1     3
    S      0.00000000      0.00000000     -0.04185663
    H      0.00000000      0.00000000      1.33147920
 
 
 
