#p b3lyp 6-311+g(3df,2p) scf=tight nosymm

IP_67

1     2
    P      0.00000007     -0.03342573      0.00000000
    H     -0.67735412      0.34237834      1.17320613
    H      1.35470620      0.34237891      0.00000000
    H     -0.67735412      0.34237834     -1.17320613
 
 
 
