#p b3lyp 6-311+g(3df,2p) scf=tight nosymm

IP_61

1     3
    O      0.00000000      0.00000000      0.48878181
    H      0.00000000      0.00000000     -0.48878181
 
 
 
