#p b3lyp 6-311+g(3df,2p) scf=tight nosymm

IP_62

1     2
    O      0.00000000      0.06494331      0.00000000
    H     -0.82130493     -0.51541910      0.00000000
    H      0.82130493     -0.51541910      0.00000000
 
 
 
