#p b3lyp 6-311+g(3df,2p) scf=tight nosymm

IP_60

1     2
    N      0.00000017      0.00000007      0.00000018
    H      0.48043661     -0.90448114     -0.00000082
    H      0.54308339      0.86831137     -0.00000082
    H     -1.02352235      0.03616885     -0.00000082
 
 
 
