#p b3lyp 6-311+g(3df,2p) scf=tight nosymm

IP_66

1     1
    P      0.00000000      0.00000000      0.66344635
    H      1.02859809      0.00000000     -0.33172324
    H     -1.02859809      0.00000000     -0.33172324
 
 
 
