#p b3lyp 6-311+g(3df,2p) scf=tight nosymm

IP_63

1     2
    F      0.05111616      0.00000000      0.00000000
    H     -0.96344663      0.00000000      0.00000000
 
 
 
