#p b3lyp 6-311+g(3df,2p) scf=tight nosymm

IP_65

1     2
    P      0.04528228      0.00000000      0.00000000
    H     -1.39147416      0.00000000      0.00000000
 
 
 
