#p b3lyp 6-311+g(3df,2p) scf=tight nosymm

IP_70

1     2
   Cl      0.00000000      0.00000000      0.03666898
    H      0.00000000      0.00000000     -1.28974602
 
 
 
