#p b3lyp 6-311+g(3df,2p) scf=tight nosymm

IP_77

1     2
    S      0.91931350      0.00000000      0.00000000
    S     -0.91931350      0.00000000      0.00000000
 
 
 
