#p b3lyp 6-311+g(3df,2p) scf=tight nosymm

IP_79

1     2
   Cl      0.54358846      0.00000000      0.00000000
    F     -1.01439289      0.00000000      0.00000000
 
 
 
