#p b3lyp 6-311+g(3df,2p) scf=tight nosymm

IP_74

1     2
    N      0.00000000      0.00000000     -0.55197978
    N      0.00000000      0.00000000      0.55197978
 
 
 
