#p b3lyp 6-311+g(3df,2p) scf=tight nosymm

IP_76

1     2
    P      0.94768546      0.00000000      0.00000000
    P     -0.94768546      0.00000000      0.00000000
 
 
 
