#p b3lyp 6-311+g(3df,2p) scf=tight nosymm

IP_71

1     2
    C      0.62168199      0.00727694     -0.00000153
    C     -0.62168177     -0.00727696      0.00000153
    H     -1.70072266     -0.02070124      0.00000288
    H      1.70072229      0.02070128     -0.00000293
 
 
 
