#p b3lyp 6-311+g(3df,2p) scf=tight nosymm

IP_78

1     2
   Cl      0.96938433      0.00000000      0.00000000
   Cl     -0.96938433      0.00000000      0.00000000
 
 
 
