#p b3lyp 6-311+g(3df,2p) scf=tight nosymm

IP_73

1     2
    C      0.63366414      0.00000000      0.00000000
    O     -0.47570753      0.00000000      0.00000000
 
 
 
