#p b3lyp 6-311+g(3df,2p) scf=tight nosymm

IP_80

1     2
    C      1.08470342      0.00000000      0.00000000
    S     -0.40632908      0.00000000      0.00000000
 
 
 
