#p b3lyp 6-311+g(3df,2p) scf=tight nosymm

IP_n65

0     3
    P      0.00000000      0.00000000      0.71528626
    H      0.00000000      0.00000000     -0.71528626
 
 
 
