#p b3lyp 6-311+g(3df,2p) scf=tight nosymm

mg

0    1
   Mg      0.00000000      0.00000000      0.00000000
 
 
 
