#p b3lyp 6-311+g(3df,2p) scf=tight nosymm

n+

1     3
    N      0.00000000      0.00000000      0.00000000
 
 
 
