#p b3lyp 6-311+g(3df,2p) scf=tight nosymm

n

0    4
    N      0.00000000      0.00000000      0.00000000
 
 
 
