#p b3lyp 6-311+g(3df,2p) scf=tight nosymm

o+

1     4
    O      0.00000000      0.00000000      0.00000000
 
 
 
