#p b3lyp 6-311+g(3df,2p) scf=tight nosymm

p+

1     3
    P      0.00000000      0.00000000      0.00000000
 
 
 
