#p b3lyp 6-311+g(3df,2p) scf=tight nosymm

s+

1     4
    S      0.00000000      0.00000000      0.00000000
 
 
 
