#p b3lyp 6-311+g(3df,2p) scf=tight nosymm

si

0    3
   Si      0.00000000      0.00000000      0.00000000
 
 
 
