lattice_vector 1.2506 -2.1660 0.0000
lattice_vector 1.2506 2.1660 0.0000
lattice_vector 0.0000 0.0000 4.0843

atom   1.2506 0.7220 0.0000 C
atom   1.2506 -0.7220 2.0421 C
atom   1.2506 0.7220 1.5316 C
atom   1.2506 -0.7220 3.5738 C
