$molecule
0    1
    O     -1.65542049     -0.12330038      0.00000000
    O      1.24621235      0.10268869      0.00000000
    H     -0.70409021      0.03193167      0.00000000
    H     -2.03867258      0.75372288      0.00000000
    H      1.57598546     -0.38252143     -0.75856124
    H      1.57598546     -0.38252143      0.75856124
$end
   
$rem
mem_static = 200
mem_total  = 7500
exchange = b3lyp
basis = G3Large
max_scf_cycles = 50
scf_convergence = 7
symmetry = false
xc_grid = 000075000302
$end
