$molecule
0    1
    O     -1.76372825     -1.96575932      0.00000000
    O     -0.89461938      2.50847950      0.00000000
    N      0.42311319     -1.28965965      0.00000000
    N     -1.27511955      0.26171529      0.00000000
    C      0.97950762      1.02824850      0.00000000
    C     -0.42599682      1.38422723      0.00000000
    C      1.33933314     -0.27265162      0.00000000
    C     -0.92554284     -1.06366059      0.00000000
    H      1.71295463      1.81593691      0.00000000
    H      0.72585550     -2.27174673      0.00000000
    H     -2.26742365      0.45445709      0.00000000
    H      2.37166640     -0.58958661      0.00000000
$end
   
$rem
mem_static = 200
mem_total  = 7500
exchange = b3lyp
basis = G3Large
max_scf_cycles = 50
scf_convergence = 7
symmetry = false
xc_grid = 000075000302
$end
