$molecule
0    1
    N      1.28120341     -0.03370390     -0.59373940
    N      3.19933946      0.02007932     -2.05580781
    N      4.43477120     -0.01116669      1.31413134
    N      5.27567604      0.03551662     -0.77157525
    N      1.41780564     -0.08226041      1.72429192
    N     -3.57498635     -0.00668839     -1.73121405
    N     -1.57946128     -0.01678309     -0.57874259
    C      5.52918124      0.01967332      0.57237013
    C      3.91079958      0.01382081     -0.92083506
    C      2.02015201     -0.04150040      0.52758415
    C      1.89526413     -0.00446689     -1.79564901
    C     -4.26749689      0.01118131     -0.54849979
    C     -3.64555208      0.01621101      0.65148636
    C     -2.18994962      0.00174131      0.66182494
    C      3.42098404     -0.01517179      0.38460866
    C     -2.19340278     -0.02067120     -1.81108387
    C     -4.36442695      0.03561352      1.95901673
    H      5.94972627      0.05915173     -1.51852912
    H      0.40487919     -0.04810030      1.78907093
    H      1.99056780     -0.04046330      2.54706890
    H      1.22563141     -0.00069779     -2.64641938
    H      6.53444868      0.03183042      0.95903501
    H     -4.05553098     -0.00933159     -2.61534073
    H     -0.53763810     -0.02734060     -0.59327470
    H     -5.34473579      0.02121092     -0.63756611
    H     -4.09774198     -0.83598133      2.55471858
    H     -4.08051936      0.91289425      2.53817876
    H     -5.44221089      0.04482922      1.80988095
    O     -1.52128591      0.00548551      1.69723619
    O     -1.59549114     -0.03491160     -2.87222667
$end
   
$rem
mem_static = 200
mem_total  = 7500
exchange = b3lyp
basis = G3Large
max_scf_cycles = 50
scf_convergence = 7
symmetry = false
xc_grid = 000075000302
$end
