$molecule
0    1
    C     -1.04782552     -1.42167398      0.00000000
    C     -1.45450380     -0.85544613      1.20620520
    C     -1.45450380     -0.85544613     -1.20620520
    C     -2.26679755      0.27716108      1.20695425
    C     -2.67147876      0.84502132      0.00000000
    C     -2.26679755      0.27716108     -1.20695425
    C      1.04782552      1.42167398      0.00000000
    C      1.45450380      0.85544613     -1.20620520
    C      1.45450380      0.85544613      1.20620520
    C      2.26679755     -0.27716108     -1.20695425
    C      2.67147876     -0.84502132      0.00000000
    C      2.26679755     -0.27716108      1.20695425
    H     -1.13385373     -1.29205969     -2.14231568
    H     -2.58249511      0.71630678     -2.14379838
    H     -3.30304320      1.72327051      0.00000000
    H     -2.58249511      0.71630678      2.14379838
    H     -1.13385373     -1.29205969      2.14231568
    H     -0.40602541     -2.29190553      0.00000000
    H      0.40602541      2.29190553      0.00000000
    H      1.13385373      1.29205969      2.14231568
    H      2.58249511     -0.71630678      2.14379838
    H      3.30304320     -1.72327051      0.00000000
    H      2.58249511     -0.71630678     -2.14379838
    H      1.13385373      1.29205969     -2.14231568
$end
   
$rem
mem_static = 200
mem_total  = 7500
exchange = b3lyp
basis = G3Large
max_scf_cycles = 50
scf_convergence = 7
symmetry = false
xc_grid = 000075000302
$end
