$molecule
0    1
    C     -0.71414688     -0.65965751      1.20770216
    C     -1.41090694     -0.63458738      0.00000000
    C     -0.71414688     -0.65965751     -1.20770216
    C      0.67959269     -0.70974503     -1.20786554
    C      1.37660577     -0.73478678      0.00000000
    C      0.67959269     -0.70974503      1.20786554
    C      0.07082373      2.70147035      0.00000000
    H     -2.49129291     -0.59294047      0.00000000
    H     -1.25432120     -0.63786252     -2.14405121
    H      1.21991594     -0.72730982     -2.14425686
    H      2.45721669     -0.77221635      0.00000000
    H      1.21991594     -0.72730982      2.14425686
    H     -1.25432120     -0.63786252      2.14405121
    H      0.14325695      1.63605090      0.00000000
    N     -0.00778439      3.86615947      0.00000000
$end
   
$rem
mem_static = 200
mem_total  = 7500
exchange = b3lyp
basis = G3Large
max_scf_cycles = 50
scf_convergence = 7
symmetry = false
xc_grid = 000075000302
$end
