$molecule
0    1
    C      1.20740099      0.69709329      0.00000000
    C      1.20740099     -0.69709329      0.00000000
    C      0.00000000     -1.39418657      0.00000000
    C     -1.20740099     -0.69709329      0.00000000
    C     -1.20740099      0.69709329      0.00000000
    C      0.00000000      1.39418657      0.00000000
    H      2.14388119      1.23777038      0.00000000
    H      2.14388119     -1.23777038      0.00000000
    H      0.00000000     -2.47554076      0.00000000
    H     -2.14388119     -1.23777038      0.00000000
    H     -2.14388119      1.23777038      0.00000000
    H      0.00000000      2.47554076      0.00000000
$end
   
$rem
mem_static = 200
mem_total  = 7500
exchange = b3lyp
basis = G3Large
max_scf_cycles = 50
scf_convergence = 7
symmetry = false
xc_grid = 000075000302
$end
