$molecule
0    1
    C     -1.10525857      0.09867983      0.00000000
    C      0.35986021      0.49805232      0.00000000
    N      1.25551032     -0.53305243      0.00000000
    O      0.71325151      1.66281045      0.00000000
    H      0.97276177     -1.49689126      0.00000000
    H      2.23885544     -0.31379594      0.00000000
    H     -1.58323755      0.53201107      0.87971475
    H     -1.26850557     -0.97982510      0.00000000
    H     -1.58323755      0.53201107     -0.87971475
$end
   
$rem
mem_static = 200
mem_total  = 7500
exchange = b3lyp
basis = G3Large
max_scf_cycles = 50
scf_convergence = 7
symmetry = false
xc_grid = 000075000302
$end
