$molecule
0    1
    C     -1.79518858     -0.41024610      0.00000000
    C     -0.49210633      0.34535416      0.00000000
    O      0.56073391     -0.50407678      0.00000000
    O     -0.37506969      1.54553130      0.00000000
    C      1.86445346      0.10603282      0.00000000
    H     -2.62230986      0.29502138      0.00000000
    H     -1.85444592     -1.05348022      0.87976444
    H     -1.85444592     -1.05348022     -0.87976444
    H      2.57159061     -0.71943448      0.00000000
    H      1.99839416      0.72438906      0.88786291
    H      1.99839416      0.72438906     -0.88786291
$end
   
$rem
mem_static = 200
mem_total  = 7500
exchange = b3lyp
basis = G3Large
max_scf_cycles = 50
scf_convergence = 7
symmetry = false
xc_grid = 000075000302
$end
