$molecule
0    1
    C     -1.12638328     -0.03052584      0.00179962
    N      0.22478562      0.49689400     -0.00409752
    H      0.36218023      1.49795801      0.00226254
    C      1.35513002     -0.25565290     -0.00260905
    O      2.48662292      0.18345309      0.00172780
    H     -1.68862702      0.30049244     -0.87496835
    H     -1.67057235      0.26764920      0.90175334
    H     -1.07972119     -1.11985810     -0.01913088
    H      1.13658505     -1.34040989     -0.00673750
$end
   
$rem
mem_static = 200
mem_total  = 7500
exchange = b3lyp
basis = G3Large
max_scf_cycles = 50
scf_convergence = 7
symmetry = false
xc_grid = 000075000302
$end
