$molecule
0    1
    C     -1.22440720      0.05362681      0.00000000
    O      0.01699390      0.79015811      0.00000000
    C      1.14153623      0.06485220      0.00000000
    F      2.18381119      0.89476785      0.00000000
    F      1.24555777     -0.74403119      1.08371446
    F      1.24555777     -0.74403119     -1.08371446
    H     -2.00274348      0.81077349      0.00000000
    H     -1.30315309     -0.56305804     -0.89538320
    H     -1.30315309     -0.56305804      0.89538320
$end
   
$rem
mem_static = 200
mem_total  = 7500
exchange = b3lyp
basis = G3Large
max_scf_cycles = 50
scf_convergence = 7
symmetry = false
xc_grid = 000075000302
$end
