$molecule
0    1
    C      0.00000000     -1.17550796      0.04521838
    O      0.00000000      0.00000000      0.82892237
    C      0.00000000      1.17550796      0.04521838
    H      0.00000000     -2.02278131      0.73019691
    H     -0.89149713     -1.23518715     -0.59493824
    H      0.89149713     -1.23518715     -0.59493824
    H      0.00000000      2.02278131      0.73019691
    H     -0.89149713      1.23518715     -0.59493824
    H      0.89149713      1.23518715     -0.59493824
$end
   
$rem
mem_static = 200
mem_total  = 7500
exchange = b3lyp
basis = G3Large
max_scf_cycles = 50
scf_convergence = 7
symmetry = false
xc_grid = 000075000302
$end
