$molecule
0    1
    C     -1.02966889      0.12457836      0.00000000
    O      0.26189472      0.75625677      0.00000000
    C      1.33421824     -0.05844226      0.00000000
    O      2.45666860      0.34978549      0.00000000
    H     -1.75565514      0.93293544      0.00000000
    H     -1.16920478     -0.48627650     -0.89450537
    H     -1.16920478     -0.48627650      0.89450537
    H      1.07095203     -1.13256080      0.00000000
$end
   
$rem
mem_static = 200
mem_total  = 7500
exchange = b3lyp
basis = G3Large
max_scf_cycles = 50
scf_convergence = 7
symmetry = false
xc_grid = 000075000302
$end
