$molecule
0    1
    C     -1.44347713      0.51765000      0.00000000
    O     -0.21347996      1.24933560      0.00000000
    C      0.99161527      0.61561795      0.00000000
    O      1.99056435      1.28173235      0.00000000
    C      0.99484194     -0.89840380      0.00000000
    H     -2.22915756      1.26954343      0.00000000
    H     -1.54547942     -0.10245366     -0.89143536
    H     -1.54547942     -0.10245366      0.89143536
    H      0.48609963     -1.29783492      0.87773802
    H      2.02785267     -1.23489838      0.00000000
    H      0.48609963     -1.29783492     -0.87773802
$end
   
$rem
mem_static = 200
mem_total  = 7500
exchange = b3lyp
basis = G3Large
max_scf_cycles = 50
scf_convergence = 7
symmetry = false
xc_grid = 000075000302
$end
