$molecule
1    1
    C      0.00000000      0.00000000     -0.97108932
    P      0.00000000      0.00000000      0.84409500
    H     -0.65167696      1.12873760      1.37020142
    H     -0.65167696     -1.12873760      1.37020142
    H      1.30335392      0.00000000      1.37020142
    H     -1.03038558      0.00000000     -1.32786998
    H      0.51519279      0.89234008     -1.32786998
    H      0.51519279     -0.89234008     -1.32786998
$end
   
$rem
mem_static = 200
mem_total  = 7500
exchange = b3lyp
basis = G3Large
max_scf_cycles = 50
scf_convergence = 7
symmetry = false
xc_grid = 000075000302
$end
