$molecule
1    1
    C     -0.73100233      0.21476548      0.00000000
    S      1.11935442      0.29158793      0.00000000
    H      1.39077939     -0.59309524      0.99742518
    H      1.39077939     -0.59309524     -0.99742518
    H     -1.05146523      0.74878712      0.89220669
    H     -1.06698039     -0.81773717      0.00000000
    H     -1.05146523      0.74878712     -0.89220669
$end
   
$rem
mem_static = 200
mem_total  = 7500
exchange = b3lyp
basis = G3Large
max_scf_cycles = 50
scf_convergence = 7
symmetry = false
xc_grid = 000075000302
$end
