$molecule
0    1
    C      0.00000000     -1.43218961     -0.33518261
    S      0.00000000      0.00000000      0.78375124
    C      0.00000000      1.43218961     -0.33518261
    O     -1.28468794      0.00000000      1.51653376
    O      1.28468794      0.00000000      1.51653376
    H     -0.90208479     -1.41102905     -0.94348504
    H      0.90208479     -1.41102905     -0.94348504
    H      0.00000000     -2.30655171      0.31374332
    H     -0.90208479      1.41102905     -0.94348504
    H      0.00000000      2.30655171      0.31374332
    H      0.90208479      1.41102905     -0.94348504
$end
   
$rem
mem_static = 200
mem_total  = 7500
exchange = b3lyp
basis = G3Large
max_scf_cycles = 50
scf_convergence = 7
symmetry = false
xc_grid = 000075000302
$end
