$molecule
0    1
    C      0.00000000      0.00000000     -0.95112444
    C      0.00000000      0.00000000      0.50452092
    C      0.00000000      0.00000000      1.70547887
    H      0.51017027      0.88364083     -1.34219782
    H      0.51017027     -0.88364083     -1.34219782
    H     -1.02034054      0.00000000     -1.34219782
    H      0.00000000      0.00000000      2.76771813
$end
   
$rem
mem_static = 200
mem_total  = 7500
exchange = b3lyp
basis = G3Large
max_scf_cycles = 50
scf_convergence = 7
symmetry = false
xc_grid = 000075000302
$end
