$molecule
0    1
    C      0.72983940     -1.26411892     -0.06542152
    C      0.00000000      0.00000000      0.40178288
    C      0.72983940      1.26411892     -0.06542152
    C     -1.45967879      0.00000000     -0.06542152
    H      1.76158633     -1.28463628      0.29526920
    H      0.23173449     -2.16789665      0.29526920
    H      0.75902932     -1.31467735     -1.15863283
    H      0.00000000      0.00000000      1.49876497
    H      0.23173449      2.16789665      0.29526920
    H      0.75902932      1.31467735     -1.15863283
    H      1.76158633      1.28463628      0.29526920
    H     -1.99332082      0.88326037      0.29526920
    H     -1.99332082     -0.88326037      0.29526920
    H     -1.51805865      0.00000000     -1.15863283
$end
   
$rem
mem_static = 200
mem_total  = 7500
exchange = b3lyp
basis = G3Large
max_scf_cycles = 50
scf_convergence = 7
symmetry = false
xc_grid = 000075000302
$end
