$molecule
0    1
    C      0.00000000      0.00000000     -0.80521993
    C      0.00000000      0.00000000      0.69833972
    F      0.62802774     -1.08777595      1.20195247
    F      0.62802774      1.08777595      1.20195247
    F     -1.25605548      0.00000000      1.20195247
    H      1.02737847      0.00000000     -1.16632574
    H     -0.51368923     -0.88973585     -1.16632574
    H     -0.51368923      0.88973585     -1.16632574
$end
   
$rem
mem_static = 200
mem_total  = 7500
exchange = b3lyp
basis = G3Large
max_scf_cycles = 50
scf_convergence = 7
symmetry = false
xc_grid = 000075000302
$end
