$molecule
0    2
    C     -0.65915803      0.30061248      0.00000000
    C      0.62470459     -0.30798902      0.00000000
    O      1.67780790      0.33666310      0.00000000
    H     -0.73637345      1.38079941      0.00000000
    H     -1.56185843     -0.29776319      0.00000000
    H      0.65487742     -1.41232278      0.00000000
$end
   
$rem
mem_static = 200
mem_total  = 7500
exchange = b3lyp
basis = G3Large
max_scf_cycles = 50
scf_convergence = 7
symmetry = false
xc_grid = 000075000302
$end
