$molecule
0    2
    C     -1.92475649     -0.51203466      0.00000000
    C     -0.69662157      0.24710086      0.00000000
    O      0.39897133     -0.55835267      0.00000000
    O     -0.63156378      1.46311778      0.00000000
    C      1.66744587      0.11513255      0.00000000
    H     -1.91226666     -1.59229276      0.00000000
    H     -2.85917054      0.02868075      0.00000000
    H      2.41596949     -0.67307058      0.00000000
    H      1.77099618      0.74085937      0.88761306
    H      1.77099618      0.74085937     -0.88761306
$end
   
$rem
mem_static = 200
mem_total  = 7500
exchange = b3lyp
basis = G3Large
max_scf_cycles = 50
scf_convergence = 7
symmetry = false
xc_grid = 000075000302
$end
