$molecule
0    2
    C     -1.06722406     -0.15274250      0.00000000
    C      0.29823174      0.31037923      0.00000000
    O      1.20332874     -0.70982958      0.00000000
    H     -1.29988907     -1.20765934      0.00000000
    H     -1.85449997      0.58567903      0.00000000
    O      0.63552108      1.47999946      0.00000000
    H      2.08453154     -0.30582631      0.00000000
$end
   
$rem
mem_static = 200
mem_total  = 7500
exchange = b3lyp
basis = G3Large
max_scf_cycles = 50
scf_convergence = 7
symmetry = false
xc_grid = 000075000302
$end
