$molecule
0    2
    C      0.68268426     -0.02476657      0.00000000
    N     -0.70627943      0.08786474      0.00000000
    H      1.18727733      0.19945084      0.92958315
    H     -1.17547975     -0.23099993     -0.83522414
    H      1.18727733      0.19945084     -0.92958315
    H     -1.17547975     -0.23099993      0.83522414
$end
   
$rem
mem_static = 200
mem_total  = 7500
exchange = b3lyp
basis = G3Large
max_scf_cycles = 50
scf_convergence = 7
symmetry = false
xc_grid = 000075000302
$end
