$molecule
1    2
    C     -0.86530402      0.03812316      0.00000000
    N      0.60437394      0.02008313      0.00000000
    H     -1.34955639     -0.05207973     -0.95893297
    H      0.98643279      0.49209917      0.82809765
    H     -1.34955639     -0.05207973      0.95893297
    H      0.98717727     -0.93824517      0.00000000
    H      0.98643279      0.49209917     -0.82809765
$end
   
$rem
mem_static = 200
mem_total  = 7500
exchange = b3lyp
basis = G3Large
max_scf_cycles = 50
scf_convergence = 7
symmetry = false
xc_grid = 000075000302
$end
