$molecule
0    2
    C     -1.36778959      0.05346502      0.00000000
    O     -0.18434873      0.76092988      0.00000000
    C      0.97649545      0.06189520      0.00000000
    H     -2.24073218      0.67941116      0.00000000
    H     -1.35012812     -1.02334661      0.00000000
    F      1.98043421      0.93231951      0.00000000
    F      1.09303448     -0.73233708      1.08289897
    F      1.09303448     -0.73233708     -1.08289897
$end
   
$rem
mem_static = 200
mem_total  = 7500
exchange = b3lyp
basis = G3Large
max_scf_cycles = 50
scf_convergence = 7
symmetry = false
xc_grid = 000075000302
$end
