$molecule
0    2
    C     -1.17379117      0.14938202      0.00000000
    O      0.05976023      0.73421054      0.00000000
    C      1.17032862     -0.05784107      0.00000000
    H     -1.25785391     -0.92764586      0.00000000
    H     -1.99816073      0.83906610      0.00000000
    O      2.27111807      0.39653129      0.00000000
    H      0.92859890     -1.13370303      0.00000000
$end
   
$rem
mem_static = 200
mem_total  = 7500
exchange = b3lyp
basis = G3Large
max_scf_cycles = 50
scf_convergence = 7
symmetry = false
xc_grid = 000075000302
$end
