$molecule
0    2
    C     -1.60757108      0.54482160      0.00000000
    O     -0.44299225      1.24481537      0.00000000
    C      0.81002889      0.66562597      0.00000000
    O      1.75983911      1.39579926      0.00000000
    C      0.87959057     -0.83970380      0.00000000
    H     -1.61557475     -0.53221841      0.00000000
    H     -2.48911597      1.16195578      0.00000000
    H      0.38941726     -1.25642964      0.88281637
    H      0.38941726     -1.25642964     -0.88281637
    H      1.92696096     -1.12823651      0.00000000
$end
   
$rem
mem_static = 200
mem_total  = 7500
exchange = b3lyp
basis = G3Large
max_scf_cycles = 50
scf_convergence = 7
symmetry = false
xc_grid = 000075000302
$end
