$molecule
1    2
    C     -0.82155916      0.19115385      0.00406872
    S      0.95048082      0.29579091      0.00496870
    H     -1.30957891      0.33694275      0.95781368
    H      1.24402945     -0.56084755     -1.01589846
    H     -1.30975327      0.32761007     -0.95092209
    H      1.24638107     -0.59065002      0.99996944
$end
   
$rem
mem_static = 200
mem_total  = 7500
exchange = b3lyp
basis = G3Large
max_scf_cycles = 50
scf_convergence = 7
symmetry = false
xc_grid = 000075000302
$end
