$molecule
0    2
    F     -1.86655706      0.00494536      0.00000000
    C     -0.66728224      0.54337754      0.00000000
    C      0.51377557     -0.02459664      0.00000000
    H      0.61374292     -1.10741026      0.00000000
    H      1.40632081      0.58368400      0.00000000
$end
   
$rem
mem_static = 200
mem_total  = 7500
exchange = b3lyp
basis = G3Large
max_scf_cycles = 50
scf_convergence = 7
symmetry = false
xc_grid = 000075000302
$end
