$molecule
0    2
    C      0.00000000      0.00000000     -1.08172393
    C      0.00000000      0.00000000      0.28346695
    C      0.00000000      0.00000000      1.50524771
    H     -0.92913087      0.00000000     -1.63727781
    H      0.92913087      0.00000000     -1.63727781
    H      0.00000000      0.00000000      2.56756489
$end
   
$rem
mem_static = 200
mem_total  = 7500
exchange = b3lyp
basis = G3Large
max_scf_cycles = 50
scf_convergence = 7
symmetry = false
xc_grid = 000075000302
$end
