$molecule
0    2
    C     -0.56444748      0.00700613      0.04128150
    C      0.91186028     -0.01048834     -0.01176303
    F     -1.12140437     -0.01226876     -1.20145701
    F     -1.05730113     -1.06617730      0.70003771
    F     -1.03309915      1.11584535      0.65638110
    H      1.42048601     -0.95877138     -0.09253311
    H      1.44390585      0.92485431     -0.09194716
$end
   
$rem
mem_static = 200
mem_total  = 7500
exchange = b3lyp
basis = G3Large
max_scf_cycles = 50
scf_convergence = 7
symmetry = false
xc_grid = 000075000302
$end
