%nproc=4
%mem=1000mb
#P B3LYP/6-311++G(3df,2p) scf=tight nosymm

He-Ar at r=2.4 Anstron

0 1
Ar
He 1 2.4


