%nproc=4
%mem=1000mb
#P B3LYP/6-311++G(3df,2p) scf=tight nosymm

He-Ar at equlibium r=3.4804 Anstron with dE=-0.05748 kcal/mol

0 1
Ar
He 1 3.4804


