$molecule
1    2
    C      0.00000000     -1.32489293     -0.15029035
    C      0.00000000      0.00000000      0.56595479
    O      0.00000000      0.00000000      1.77934695
    C      0.00000000      1.32489293     -0.15029035
    H      0.00000000     -2.15656890      0.54532876
    H      0.88773623     -1.33562296     -0.78384464
    H     -0.88773623     -1.33562296     -0.78384464
    H      0.88773623      1.33562296     -0.78384464
    H      0.00000000      2.15656890      0.54532876
    H     -0.88773623      1.33562296     -0.78384464
$end
   
$rem
mem_static = 200
mem_total  = 7500
exchange = b3lyp
basis = G3Large
max_scf_cycles = 50
scf_convergence = 7
symmetry = false
xc_grid = 000075000302
$end
