$molecule
1    2
    C     -1.60667048     -0.92016678      0.00000000
    C     -0.02364427     -0.78138375      0.00000000
    C      0.02364427      0.78138375      0.00000000
    C      1.60667048      0.92016678      0.00000000
    H     -1.64288172     -2.02223296      0.00000000
    H     -2.05732152     -0.52179441      0.90128579
    H     -2.05732152     -0.52179441     -0.90128579
    H      0.40215529     -1.21099526     -0.89958251
    H      0.40215529     -1.21099526      0.89958251
    H     -0.40215529      1.21099526     -0.89958251
    H     -0.40215529      1.21099526      0.89958251
    H      2.05732152      0.52179441     -0.90128579
    H      1.64288172      2.02223296      0.00000000
    H      2.05732152      0.52179441      0.90128579
$end
   
$rem
mem_static = 200
mem_total  = 7500
exchange = b3lyp
basis = G3Large
max_scf_cycles = 50
scf_convergence = 7
symmetry = false
xc_grid = 000075000302
$end
