$molecule
0    2
   Cl     -0.73307782     -1.58992194      0.00000000
    F     -0.76271797      0.09444467      0.00000000
   Cl      1.49579579      1.49547727      0.00000000
$end
   
$rem
mem_static = 200
mem_total  = 7500
exchange = b3lyp
basis = G3Large
max_scf_cycles = 50
scf_convergence = 7
symmetry = false
xc_grid = 000075000302
$end
