$molecule
1    1
    C      0.00000000     -0.69092431     -0.15673025
    C      0.00000000      0.69092431     -0.15673025
    H      0.00000000      0.00000000      0.95635312
    H      0.93396303     -1.23977864     -0.16072315
    H     -0.93396303     -1.23977864     -0.16072315
    H      0.93396303      1.23977864     -0.16072315
    H     -0.93396303      1.23977864     -0.16072315
$end
   
$rem
mem_static = 200
mem_total  = 7500
exchange = b3lyp
basis = G3Large
max_scf_cycles = 50
scf_convergence = 7
symmetry = false
xc_grid = 000075000302
$end
