$molecule
1    2
    O      1.00692009     -0.10030062      0.00000000
    O     -1.00692009      0.10030062      0.00000000
    H      1.17077147      0.47145440      0.77499187
    H      1.17077147      0.47145440     -0.77499187
    H     -1.17077147     -0.47145440      0.77499187
    H     -1.17077147     -0.47145440     -0.77499187
$end
   
$rem
mem_static = 200
mem_total  = 7500
exchange = b3lyp
basis = G3Large
max_scf_cycles = 50
scf_convergence = 7
symmetry = false
xc_grid = 000075000302
$end
