$molecule
0    1
    N      0.00000000      0.00000000     -0.28910284
    H     -0.46758771     -0.80988567      0.09636761
    H     -0.46758771      0.80988567      0.09636761
    H      0.93517542      0.00000000      0.09636761
$end
   
$rem
mem_static = 200
mem_total  = 7500
exchange = b3lyp
basis = G3Large
max_scf_cycles = 50
scf_convergence = 7
symmetry = false
xc_grid = 000075000302
$end
