$molecule
1    2
    N      0.00000000      0.00000000     -1.08323210
    N      0.00000000      0.00000000      1.08323210
    H      0.84294387      0.48667387     -1.35891638
    H      0.00000000     -0.97334774     -1.35891638
    H     -0.84294387      0.48667387     -1.35891638
    H      0.84294387     -0.48667387      1.35891638
    H      0.00000000      0.97334774      1.35891638
    H     -0.84294387     -0.48667387      1.35891638
$end
   
$rem
mem_static = 200
mem_total  = 7500
exchange = b3lyp
basis = G3Large
max_scf_cycles = 50
scf_convergence = 7
symmetry = false
xc_grid = 000075000302
$end
