#p b3lyp 6-311+g(3df,2p) scf=tight nosymm

EA_19

-1    1
    S      0.00000000      0.00000000      0.67556766
    H      0.00000000      0.00000000     -0.67556766
 
 
 
