#p b3lyp 6-311+g(3df,2p) scf=tight nosymm

EA_18

-1    1
    P      0.00000000      0.00000000      0.66783916
    H      1.03376509      0.00000000     -0.33391958
    H     -1.03376509      0.00000000     -0.33391958
 
 
 
