#p b3lyp 6-311+g(3df,2p) scf=tight nosymm

EA_16n

0    2
   Si      0.00000000      0.00000000     -0.34122395
    H      0.70774083     -1.22584308      0.11374132
    H      0.70774083      1.22584308      0.11374132
    H     -1.41548167      0.00000000      0.11374132
 
 
 
