#p b3lyp 6-311+g(3df,2p) scf=tight nosymm

EA_11n

0    3
    N      0.00000000      0.00000000      0.06983896
    H      0.00000000      0.00000000     -0.97047867
 
 
 
