#p b3lyp 6-311+g(3df,2p) scf=tight nosymm

EA_10n

0    2
    C      0.00000000      0.00000000      0.00000000
    H     -0.53910885      0.93376393      0.00000000
    H     -0.53910885     -0.93376393      0.00000000
    H      1.07821771      0.00000000      0.00000000
 
 
 
