#p b3lyp 6-311+g(3df,2p) scf=tight nosymm

EA_16

-1    1
   Si      0.00000000      0.00000000     -0.62109028
    H      0.65437846     -1.13341673      0.20703009
    H      0.65437846      1.13341673      0.20703009
    H     -1.30875691      0.00000000      0.20703009
 
 
 
