#p b3lyp 6-311+g(3df,2p) scf=tight nosymm

EA_17

-1    2
    P      0.00000000      0.00000000      0.72366038
    H      0.00000000      0.00000000     -0.72366038
 
 
 
