#p b3lyp 6-311+g(3df,2p) scf=tight nosymm

EA_13n

0    2
    O      0.00000000      0.00000000      0.48732681
    H      0.00000000      0.00000000     -0.48732723
 
 
 
