#p b3lyp 6-311+g(3df,2p) scf=tight nosymm

EA_14

-1    3
   Si      0.00000000      0.00000000      0.78299035
    H      0.00000000      0.00000000     -0.78299035
 
 
 
