#p b3lyp 6-311+g(3df,2p) scf=tight nosymm

EA_12

-1    1
    N      0.00000000      0.00000000      0.44206858
    H      0.79395333      0.00000000     -0.22103429
    H     -0.79395333      0.00000000     -0.22103429
 
 
 
