#p b3lyp 6-311+g(3df,2p) scf=tight nosymm

EA_17n

0    3
    P      0.00000000      0.00000000      0.71585784
    H      0.00000000      0.00000000     -0.71586102
 
 
 
