#p b3lyp 6-311+g(3df,2p) scf=tight nosymm

EA_10

-1    1
    C      0.00000000      0.00000000     -0.34381636
    H      0.50698032     -0.87811567      0.11460545
    H      0.50698032      0.87811567      0.11460545
    H     -1.01396064      0.00000000      0.11460545
 
 
 
