#p b3lyp 6-311+g(3df,2p) scf=tight nosymm

EA_15n

0    1
   Si      0.00000000      0.00000000      0.71086404
    H      1.09394643      0.00000000     -0.35543202
    H     -1.09394643      0.00000000     -0.35543202
 
 
 
