#p b3lyp 6-311+g(3df,2p) scf=tight nosymm

EA_14n

0    2
   Si      0.00000000      0.00000000      0.76712681
    H      0.00000000      0.00000000     -0.76712681
 
 
 
