#p b3lyp 6-311+g(3df,2p) scf=tight nosymm

EA_12n

0    2
    N      0.00000000      0.00000000      0.42632396
    H      0.80413580      0.00000000     -0.21316198
    H     -0.80413580      0.00000000     -0.21316198
 
 
 
