#p b3lyp 6-311+g(3df,2p) scf=tight nosymm

EA_18n

0    2
    P      0.00000000      0.00000000      0.66231641
    H      1.02364941      0.00000000     -0.33115820
    H     -1.02364941      0.00000000     -0.33115820
 
 
 
