#p b3lyp 6-311+g(3df,2p) scf=tight nosymm

EA_15

-1    2
   Si      0.00000000      0.00000000      0.72126653
    H      1.11964783      0.00000000     -0.36063327
    H     -1.11964783      0.00000000     -0.36063327
 
 
 
