#p b3lyp 6-311+g(3df,2p) scf=tight nosymm

EA_11

-1    2
    N      0.00000000      0.00000000      0.07034451
    H      0.00000000      0.00000000     -0.97750373
 
 
 
