#p b3lyp 6-311+g(3df,2p) scf=tight nosymm

EA_22

-1    1
    C      0.00000000      0.00000000      0.58520078
    N      0.00000000      0.00000000     -0.58520078
 
 
 
