#p b3lyp 6-311+g(3df,2p) scf=tight nosymm

EA_20n

0    3
    O      0.00000000      0.00000000      0.60449014
    O      0.00000000      0.00000000     -0.60449014
 
 
 
