#p b3lyp 6-311+g(3df,2p) scf=tight nosymm

EA_21

-1    3
    N      0.00000000      0.00000000      0.63486991
    O      0.00000000      0.00000000     -0.63486991
 
 
 
