#p b3lyp 6-311+g(3df,2p) scf=tight nosymm

EA_24

-1    2
    S      1.02605111      0.00000000      0.00000000
    S     -1.02605111      0.00000000      0.00000000
 
 
 
