#p b3lyp 6-311+g(3df,2p) scf=tight nosymm

EA_24n

0    3
    S      0.00000000      0.00000000      0.96128154
    S      0.00000000      0.00000000     -0.96128154
 
 
 
