#p b3lyp 6-311+g(3df,2p) scf=tight nosymm

EA_25

-1    2
   Cl      0.00000000      0.00000000      1.36650460
   Cl      0.00000000      0.00000000     -1.36650460
 
 
 
