#p b3lyp 6-311+g(3df,2p) scf=tight nosymm

EA_21n

0    2
    N      0.00000000      0.00000000      0.57298358
    O      0.00000000      0.00000000     -0.57298358
 
 
 
