#p b3lyp 6-311+g(3df,2p) scf=tight nosymm

EA_23n

0    2
    P      0.00000000      0.00000000      0.74541934
    O      0.00000000      0.00000000     -0.74541934
 
 
 
