#p b3lyp 6-311+g(3df,2p) scf=tight nosymm

EA_8

-1    3
    C      0.00000000      0.00000000      0.08848805
    H      0.00000000      0.00000000     -1.05443940
 
 
 
