#p b3lyp 6-311+g(3df,2p) scf=tight nosymm

EA_8n

0    2
    C      0.00000000      0.00000000      0.56142450
    H      0.00000000      0.00000000     -0.56142450
 
 
 
