#p b3lyp 6-311+g(3df,2p) scf=tight nosymm

EA_9n

0    3
    C      0.00000000      0.00000000      0.27425591
    H      0.99604505      0.00000000     -0.13712795
    H     -0.99604505      0.00000000     -0.13712795
 
 
 
