#p b3lyp 6-311+g(3df,2p) scf=tight nosymm

EA_9

-1    2
    C      0.00000000      0.00000000      0.48425244
    H      0.86409105      0.00000000     -0.24212622
    H     -0.86409105      0.00000000     -0.24212622
 
 
 
