#p b3lyp 6-311+g(3df,2p) scf=tight nosymm

EA_si-

-1    4
   Si      0.00000000      0.00000000      0.00000000
 
 
 
