$molecule
0  1 
      C                .000000     .000000    -.737248
      N                .000000     .000000     .432089
      H                .000000     .000000    1.426960
$end
   
$rem
mem_static = 200
mem_total  = 7500
exchange = b3lyp
basis = 6-311+g(3df,2p)
scf_convergence = 7
symmetry = false
xc_grid = 000075000302
$end
