$molecule
0 1
C        0.000000    0.000000   -1.125886
Cl       0.000000    0.000000    0.656830
H        0.000000    1.027993   -1.470264
H        0.890268   -0.513997   -1.470264
H       -0.890268   -0.513997   -1.470264
$end
   
$rem
mem_static = 200
mem_total  = 7500
exchange = b3lyp
basis = 6-311+g(3df,2p)
scf_convergence = 7
symmetry = false
xc_grid = 000075000302
$end
