$molecule
-1 1
     Cl             .000000     .000000    1.623138
      C             .000000     .000000    -.227358
      H             .000000    1.026321    -.555141
      H             .888820    -.513160    -.555141
      H            -.888820    -.513160    -.555141
      F             .000000     .000000   -2.729308
$end
   
$rem
mem_static = 200
mem_total  = 7500
exchange = b3lyp
basis = 6-311+g(3df,2p)
scf_convergence = 7
symmetry = false
xc_grid = 000075000302
$end
