$molecule
0 1
N   0.0000   0.0000   0.000
N   1.09710935  0.000  0.000
$end
   
$rem
mem_static = 200
mem_total  = 7500
exchange = b3lyp
basis = 6-311+g(3df,2p)
scf_convergence = 7
symmetry = false
xc_grid = 000075000302
$end
