$molecule
-1 1
O   0.0000 0.0000 0.0000
H   0.96204317 0.0000 0.00000
$end
   
$rem
mem_static = 200
mem_total  = 7500
exchange = b3lyp
basis = 6-311+g(3df,2p)
scf_convergence = 7
symmetry = false
xc_grid = 000075000302
$end
