$molecule
0 1
C       -0.046423    0.663069    0.000000
O       -0.046423   -0.755063    0.000000
H       -1.086956    0.975938    0.000000
H        0.860592   -1.057039    0.000000
H        0.438145    1.071594    0.889539
H        0.438145    1.071594   -0.889539
$end
   
$rem
mem_static = 200
mem_total  = 7500
exchange = b3lyp
basis = 6-311+g(3df,2p)
scf_convergence = 7
symmetry = false
xc_grid = 000075000302
$end
