$molecule
-1 1
      C              -1.297997    -.389518    -.000034
      O               -.477223     .728021     .000054
      H              -2.351922    -.080232    -.008639
      H              -1.140853   -1.035821    -.878101
      H              -1.153178   -1.027513     .886359
      H                .510580     .371160     .000243
      F               1.749016    -.190517    -.000010
$end
   
$rem
mem_static = 200
mem_total  = 7500
exchange = b3lyp
basis = 6-311+g(3df,2p)
scf_convergence = 7
symmetry = false
xc_grid = 000075000302
$end
