$molecule
-1 1
        F                  .000371   -2.468340     .021390
        C                 -.276642   -1.074418    -.002690
        H                  .649290    -.516500    -.009016
        H                 -.841989    -.847119    -.897075
        H                 -.851028    -.826589     .881417
        O                 -.301713    1.582524    -.206544
        H                 -.605112    2.492434    -.164305
$end
   
$rem
mem_static = 200
mem_total  = 7500
exchange = b3lyp
basis = 6-311+g(3df,2p)
scf_convergence = 7
symmetry = false
xc_grid = 000075000302
$end
