$molecule
0  2
C    -0.258719   -0.816829    0.000000
C    -0.250987    0.674191    0.000000
H     0.758830   -1.225939    0.000000
H    -0.758830   -1.213866    0.883419
H    -0.758830   -1.213866   -0.883419
H    -0.170021    1.225939   -0.924320
H    -0.170021    1.225939    0.924320
$end
   
$rem
mem_static = 200
mem_total  = 7500
exchange = b3lyp
basis = 6-311+g(3df,2p)
scf_convergence = 7
symmetry = false
xc_grid = 000075000302
$end
