#p b3lyp 6-311+g(3df,2p) scf=tight nosymm

01a

0    1
    N      0.00000000      0.00000000     -0.28853302
    H     -0.46806698      0.81071579      0.09617767
    H     -0.46806698     -0.81071579      0.09617767
    H      0.93613396      0.00000000      0.09617767
 
 
 
