#p b3lyp 6-311+g(3df,2p) scf=tight nosymm

02a

0    1
    O      0.00000000      0.00000000     -0.38904988
    H      0.75861214      0.00000000      0.19452494
    H     -0.75861214      0.00000000      0.19452494
 
 
 
