#p b3lyp 6-311+g(3df,2p) scf=tight nosymm

02b

0    1
    O      0.00000000      0.00000000     -0.39273819
    H     -0.76006861      0.00000000      0.19636910
    H      0.76006861      0.00000000      0.19636910
 
 
 
