#p b3lyp 6-311+g(3df,2p) scf=tight nosymm

06b

0    1
    N     -1.29694244      0.43034483     -0.02339591
    N     -1.34139174     -1.84192992      0.41236993
    C      0.79405522     -0.73523543      0.14705764
    C      1.48888646      0.43995282     -0.06003802
    C      0.78026733      1.62787630     -0.25242147
    C     -0.60169019      1.56170720     -0.22498257
    C     -0.61428392     -0.71397078      0.16066485
    H      2.57023962      0.43297542     -0.07378002
    H      1.28138883      2.56880631     -0.42045041
    H     -1.19571631      2.45575883     -0.37450172
    H      1.31621737     -1.66976171      0.30024328
    H     -0.86023256     -2.71490356      0.28659347
    H     -2.32079767     -1.84162031      0.12264094
 
 
 
