#p b3lyp 6-311+g(3df,2p) scf=tight nosymm

09

0    1
    C     -0.47192515     -0.47192515     -1.85911158
    C      0.47192515      0.47192515     -1.85911158
    C     -0.47192515      0.47192515      1.85911158
    C      0.47192515     -0.47192515      1.85911158
    H     -0.87046427     -0.87046427     -2.78330873
    H      0.87046427      0.87046427     -2.78330873
    H     -0.87242223     -0.87242223     -0.93612524
    H      0.87242223      0.87242223     -0.93612524
    H     -0.87242223      0.87242223      0.93612524
    H      0.87242223     -0.87242223      0.93612524
    H     -0.87046427      0.87046427      2.78330873
    H      0.87046427     -0.87046427      2.78330873
 
 
 
