#p b3lyp 6-311+g(3df,2p) scf=tight nosymm

09a

0    1
    C      0.00000000      0.66740292      0.00000000
    C      0.00000000     -0.66740292      0.00000000
    H      0.92338993      1.23379137      0.00000000
    H      0.92338993     -1.23379137      0.00000000
    H     -0.92338993      1.23379137      0.00000000
    H     -0.92338993     -1.23379137      0.00000000
 
 
 
