#p b3lyp 6-311+g(3df,2p) scf=tight nosymm

10a

0    1
    C      1.20697164      0.69684540      0.00000000
    C      1.20697164     -0.69684540      0.00000000
    C      0.00000000     -1.39369080      0.00000000
    C     -1.20697164     -0.69684540      0.00000000
    C     -1.20697164      0.69684540      0.00000000
    C      0.00000000      1.39369080      0.00000000
    H      2.14349894     -1.23754969      0.00000000
    H      0.00000000     -2.47509938      0.00000000
    H     -2.14349894     -1.23754969      0.00000000
    H     -2.14349894      1.23754969      0.00000000
    H      0.00000000      2.47509938      0.00000000
    H      2.14349894      1.23754969      0.00000000
 
 
 
