#p b3lyp 6-311+g(3df,2p) scf=tight nosymm

10b

0    1
    C      0.00000000      0.00000000      0.00000000
    H      0.62676628     -0.62676628      0.62676628
    H     -0.62676628      0.62676628      0.62676628
    H      0.62676628      0.62676628     -0.62676628
    H     -0.62676628     -0.62676628     -0.62676628
 
 
 
