#p b3lyp 6-311+g(3df,2p) scf=tight nosymm

11a

0    1
    C     -1.20719543     -0.69697461      0.00000000
    C     -1.20719543      0.69697461      0.00000000
    C      0.00000000     -1.39394921      0.00000000
    C      0.00000000      1.39394921      0.00000000
    C      1.20719543      0.69697461      0.00000000
    C      1.20719543     -0.69697461      0.00000000
    H      0.00000000     -2.47443289      0.00000000
    H      2.14292174     -1.23721644      0.00000000
    H      2.14292174      1.23721644      0.00000000
    H      0.00000000      2.47443289      0.00000000
    H     -2.14292174      1.23721644      0.00000000
    H     -2.14292174     -1.23721644      0.00000000
 
 
 
