#p b3lyp 6-311+g(3df,2p) scf=tight nosymm

12

0    1
    C     -1.24680949     -1.17150405     -0.69613900
    C     -1.24680949     -1.17150405      0.69613900
    C      0.73191314     -2.26490528      0.69672902
    C      0.73191314     -2.26490528     -0.69672902
    C     -0.33762293      2.08037884      1.13004554
    C      0.85440588      1.35966497      1.13063108
    C      0.85440588      1.35966497     -1.13063108
    C     -0.33762293      2.08037884     -1.13004554
    H      1.54918104     -2.71251158      1.24756080
    H      1.54918104     -2.71251158     -1.24756080
    H     -2.06305665     -0.72200261     -1.24728008
    H     -2.06305665     -0.72200261      1.24728008
    H     -0.80999578      2.36462141      2.06186487
    H      1.32123889      1.06737871      2.06239918
    H      1.32123889      1.06737871     -2.06239918
    H     -0.80999578      2.36462141     -2.06186487
    N      1.47055938      0.99107756      0.00000000
    N     -0.25857083     -1.72326012      1.41448001
    N     -0.25857083     -1.72326012     -1.41448001
    N     -0.95192592      2.45320183      0.00000000
 
 
 
