#p b3lyp 6-311+g(3df,2p) scf=tight nosymm

12a

0    1
    C     -1.13064961      0.69613832      0.00000000
    C     -1.13064961     -0.69613832      0.00000000
    C      1.13064961     -0.69613832      0.00000000
    C      1.13064961      0.69613832      0.00000000
    N      0.00000000     -1.41447862      0.00000000
    N      0.00000000      1.41447862      0.00000000
    H     -2.06247989      1.24727886      0.00000000
    H     -2.06247989     -1.24727886      0.00000000
    H      2.06247989     -1.24727886      0.00000000
    H      2.06247989      1.24727886      0.00000000
 
 
 
