#p b3lyp 6-311+g(3df,2p) scf=tight nosymm

16b

0    1
    C      0.00000000      0.00000000      0.60424717
    C      0.00000000      0.00000000     -0.60424717
    H      0.00000000      0.00000000     -1.66890447
    H      0.00000000      0.00000000      1.66890447
 
 
 
