#p b3lyp 6-311+g(3df,2p) scf=tight nosymm

17b

0    1
    H     -0.75081137      0.00000000      0.19887912
    H      0.75081137      0.00000000      0.19887912
    O      0.00000000      0.00000000     -0.39775824
 
 
 
