#p b3lyp 6-311+g(3df,2p) scf=tight nosymm

18b

0    1
    H      0.46538655      0.80607315      0.09971444
    H      0.46538655     -0.80607315      0.09971444
    H     -0.93077310      0.00000000      0.09971444
    N      0.00000000      0.00000000     -0.29914333
 
 
 
