#p b3lyp 6-311+g(3df,2p) scf=tight nosymm

19b

0    1
    N      0.00000000      0.00000000      1.13418540
    C      0.00000000      0.00000000     -0.03315323
    H      0.00000000      0.00000000     -1.10103217
 
 
 
