#p b3lyp 6-311+g(3df,2p) scf=tight nosymm

c2h2p

1    1
    C      0.60940850      0.00000000      0.22268657
    H      1.68866124      0.00000000      0.23355210
    C     -0.60940850      0.00000000      0.22268657
    H     -1.68866124      0.00000000      0.23355210
    H      0.00000000      0.00000000     -0.91247733
 
 
 
