#p b3lyp 6-311+g(3df,2p) scf=tight nosymm

h2o

0    1
    O      0.00000000      0.00000000     -0.39032895
    H     -0.76214727      0.00000000      0.19516447
    H      0.76214727      0.00000000      0.19516447
 
 
 
