#p b3lyp 6-311+g(3df,2p) scf=tight nosymm

h2op

1    1
    O      0.00000000      0.00000000      0.19666393
    H     -0.47206764      0.81764513     -0.06555464
    H     -0.47206764     -0.81764513     -0.06555464
    H      0.94413528      0.00000000     -0.06555464
 
 
 
