#p b3lyp 6-311+g(3df,2p) scf=tight nosymm

h2p

1    1
    H     -0.25413582     -0.44017615      0.00000000
    H     -0.25413582      0.44017615      0.00000000
    H      0.50827164      0.00000000      0.00000000
 
 
 
