#p b3lyp 6-311+g(3df,2p) scf=tight nosymm

h2s

0    1
    S      0.00000000      0.00000000     -0.61815041
    H     -0.97553230      0.00000000      0.30907521
    H      0.97553230      0.00000000      0.30907521
 
 
 
