#p b3lyp 6-311+g(3df,2p) scf=tight nosymm

h2sp

1    1
    S      0.00000000      0.00000000      0.53882996
    H     -0.57824060      1.00154209     -0.17960999
    H     -0.57824060     -1.00154209     -0.17960999
    H      1.15648119      0.00000000     -0.17960999
 
 
 
