#p b3lyp 6-311+g(3df,2p) scf=tight nosymm

hcl

0    1
   Cl      0.00000000      0.00000000     -0.64181572
    H      0.00000000      0.00000000      0.64181572
 
 
 
