#p b3lyp 6-311+g(3df,2p) scf=tight nosymm

hclp

1    1
   Cl      0.00000000      0.00000000     -0.59240049
    H     -0.97096602      0.00000000      0.29620025
    H      0.97096602      0.00000000      0.29620025
 
 
 
