#p b3lyp 6-311+g(3df,2p) scf=tight nosymm

p2

0    1
    C      0.66304135      0.00000000      0.00000000
    C     -0.66304135      0.00000000      0.00000000
    H      1.23386235      0.92182152      0.00000000
    H      1.23386235     -0.92182152      0.00000000
    H     -1.23386235     -0.92182152      0.00000000
    H     -1.23386235      0.92182152      0.00000000
 
 
 
