#p b3lyp 6-311+g(3df,2p) scf=tight nosymm

p6

0    1
    C      1.86470323     -0.41189460      0.00000000
    C      3.06693308      0.17596965      0.00000000
    C      0.60393268      0.29814493      0.00000000
    C     -0.60393268     -0.29814493      0.00000000
    C     -1.86470323      0.41189460      0.00000000
    C     -3.06693308     -0.17596965      0.00000000
    H      1.80745912     -1.49799491      0.00000000
    H      3.17080290      1.25570672      0.00000000
    H      3.98132517     -0.40325778      0.00000000
    H      0.65494193      1.38514809      0.00000000
    H     -0.65494193     -1.38514809      0.00000000
    H     -1.80745912      1.49799491      0.00000000
    H     -3.17080290     -1.25570672      0.00000000
    H     -3.98132517      0.40325778      0.00000000
 
 
 
