#p b3lyp 6-311+g(3df,2p) scf=tight nosymm

ph3p

1    1
    P      0.00000000      0.00000000      0.00000000
    H      0.80725856     -0.80725856      0.80725856
    H     -0.80725856      0.80725856      0.80725856
    H     -0.80725856     -0.80725856     -0.80725856
    H      0.80725856      0.80725856     -0.80725856
 
 
 
