$molecule
0    1
   Bi      0.00000000      0.00000000     -1.03191351
    H     -0.71872189     -1.24486283     -2.05020700
    H     -0.71872189      1.24486283     -2.05020700
    H      1.43744378      0.00000000     -2.05020700
   Br      0.00000000      0.00000000      2.88366063
    H      0.00000000      0.00000000      4.29942259
$end
   
$rem
mem_static = 200
mem_total  = 7500
exchange = b3lyp
basis = G3Large
max_scf_cycles = 50
scf_convergence = 7
symmetry = false
xc_grid = 000075000302
$end
