$molecule
0    1
   Bi      2.22863485      0.34891862      0.00000000
   Bi     -2.22863485     -0.34891862      0.00000000
    H      3.23478865     -0.39488428      1.24306982
    H      1.18805481     -1.07640373      0.00000000
    H      3.23478865     -0.39488428     -1.24306982
    H     -3.23478865      0.39488428     -1.24306982
    H     -1.18805481      1.07640373      0.00000000
    H     -3.23478865      0.39488428      1.24306982
$end
   
$rem
mem_static = 200
mem_total  = 7500
exchange = b3lyp
basis = G3Large
max_scf_cycles = 50
scf_convergence = 7
symmetry = false
xc_grid = 000075000302
$end
