$molecule
0    1
   Bi      0.00000000      0.00000000     -1.05655128
    H     -0.71970624     -1.24656778     -2.07028880
    H     -0.71970624      1.24656778     -2.07028880
    H      1.43941249      0.00000000     -2.07028880
    I      0.00000000      0.00000000      2.83695051
    H      0.00000000      0.00000000      4.43069977
$end
   
$rem
mem_static = 200
mem_total  = 7500
exchange = b3lyp
basis = G3Large
max_scf_cycles = 50
scf_convergence = 7
symmetry = false
xc_grid = 000075000302
$end
