$molecule
0    1
   Bi      0.88173516     -1.21359137     -0.28844638
    H      0.66304929     -2.94880979      0.00668746
    H      0.11661015     -0.87036902      1.26334018
    H     -0.69470504     -1.16741576     -1.07588916
    O      0.02897831      1.89470988      0.01081308
    H     -0.66141942      1.74538096      0.65983689
    H     -0.33424845      2.56009510     -0.57634207
$end
   
$rem
mem_static = 200
mem_total  = 7500
exchange = b3lyp
basis = G3Large
max_scf_cycles = 50
scf_convergence = 7
symmetry = false
xc_grid = 000075000302
$end
