$molecule
0    1
   Pb      0.00000000      0.00000000     -1.34189292
    H      0.00000000     -1.40465323     -0.34532423
    H      0.00000000      1.40465323     -0.34532423
    H      1.40529997      0.00000000     -2.33853283
    H     -1.40529997      0.00000000     -2.33853283
    H      0.00000000      0.00000000      3.99089583
   Cl      0.00000000      0.00000000      2.71871121
$end
   
$rem
mem_static = 200
mem_total  = 7500
exchange = b3lyp
basis = G3Large
max_scf_cycles = 50
scf_convergence = 7
symmetry = false
xc_grid = 000075000302
$end
