$molecule
0    1
   Pb      0.00000000      0.00000000     -1.41301360
    H      0.00000000     -1.39921820     -0.40513541
    H      0.00000000      1.39921820     -0.40513541
    H      1.40865389      0.00000000     -2.40217588
    H     -1.40865389      0.00000000     -2.40217588
    H      0.00000000      0.00000000      4.30972473
    I      0.00000000      0.00000000      2.71791144
$end
   
$rem
mem_static = 200
mem_total  = 7500
exchange = b3lyp
basis = G3Large
max_scf_cycles = 50
scf_convergence = 7
symmetry = false
xc_grid = 000075000302
$end
