$molecule
0    1
   Sb     -0.72209352      1.88481085      0.00000000
    H     -0.22081121      2.94853355      1.20385108
    H     -0.22081121      2.94853355     -1.20385108
    H      0.78013036      1.12112950      0.00000000
   Sb      0.78997546     -2.07613181      0.00000000
    H     -0.28437966     -1.59408840      1.20212673
    H      0.16236943     -3.63869883      0.00000000
    H     -0.28437966     -1.59408840     -1.20212673
$end
   
$rem
mem_static = 200
mem_total  = 7500
exchange = b3lyp
basis = G3Large
max_scf_cycles = 50
scf_convergence = 7
symmetry = false
xc_grid = 000075000302
$end
