$molecule
0    1
   Sb      0.00000000      0.00000000      0.71470899
    H      0.00000000      0.00000000     -2.10600374
   Br      0.00000000      0.00000000     -3.52885920
    H     -0.69982700     -1.21213593      1.63998487
    H     -0.69982700      1.21213593      1.63998487
    H      1.39965401      0.00000000      1.63998487
$end
   
$rem
mem_static = 200
mem_total  = 7500
exchange = b3lyp
basis = G3Large
max_scf_cycles = 50
scf_convergence = 7
symmetry = false
xc_grid = 000075000302
$end
