$molecule
0    1
   Sb      0.00000000      0.00000000      0.75433135
    H      0.00000000      0.00000000     -2.10346117
    I      0.00000000      0.00000000     -3.70234069
    H     -0.69909387     -1.21086611      1.68361271
    H     -0.69909387      1.21086611      1.68361271
    H      1.39818775      0.00000000      1.68361271
$end
   
$rem
mem_static = 200
mem_total  = 7500
exchange = b3lyp
basis = G3Large
max_scf_cycles = 50
scf_convergence = 7
symmetry = false
xc_grid = 000075000302
$end
