$molecule
0    1
   Sb      0.00000000      0.00000000      0.68123831
    H      0.00000000      0.00000000     -2.10660429
   Cl      0.00000000      0.00000000     -3.38689667
    H     -0.70027662     -1.21291469      1.60399463
    H     -0.70027662      1.21291469      1.60399463
    H      1.40055324      0.00000000      1.60399463
$end
   
$rem
mem_static = 200
mem_total  = 7500
exchange = b3lyp
basis = G3Large
max_scf_cycles = 50
scf_convergence = 7
symmetry = false
xc_grid = 000075000302
$end
