$molecule
0    1
   Te     -1.76924260     -1.24345138      0.00000000
    H     -0.50037755     -0.21226995      0.00000000
    H     -2.80143148      0.02224694      0.00000000
    H      2.89092935      0.00544617      0.00000000
    I      2.18012229      1.42802822      0.00000000
$end
   
$rem
mem_static = 200
mem_total  = 7500
exchange = b3lyp
basis = G3Large
max_scf_cycles = 50
scf_convergence = 7
symmetry = false
xc_grid = 000075000302
$end
