$molecule
0    1
   Te      0.85218598     -1.63370596      0.00000000
    H      0.88952003     -3.27710326      0.00000000
    H     -0.77666742     -1.67466018      0.00000000
    N     -0.17475381      1.37089808      0.00000000
    H     -0.71827376      1.62733424     -0.81225951
    H     -0.71827376      1.62733424      0.81225951
    H      0.64626273      1.95990284      0.00000000
$end
   
$rem
mem_static = 200
mem_total  = 7500
exchange = b3lyp
basis = G3Large
max_scf_cycles = 50
scf_convergence = 7
symmetry = false
xc_grid = 000075000302
$end
