%chk=G2-136.chk
#p b3lyp/6-31+g(d,p) scf=tight iop(5/33=1) extraoverlay

H2 B3LYP/6-31G* geometry

0    1
  H      0.00000000      0.00000000      0.37132200
  H      0.00000000      0.00000000     -0.37132200
 
 
 
