%chk=G2-138.chk
#p b3lyp/6-31+g(d,p) scf=tight iop(5/33=1) extraoverlay

CCH B3LYP 6-31G* geometry nonlinear

0    2
  C      0.02481300     -0.73920700      0.00000000
  C      0.02481300      0.48783300      0.00000000
  H     -0.29775700      1.50824400      0.00000000
 
 
 
