%chk=G2-15.chk
#p b3lyp/6-31+g(d,p) scf=tight iop(5/33=1) extraoverlay

SIH2 3B1 //b3lyp/6-31G*

0    3
 Si      0.00000000      0.00000000      0.09566400
  H      0.00000000      1.28002900     -0.66964600
  H      0.00000000     -1.28002900     -0.66964600
 
 
 
