%chk=G2-137.chk
#p b3lyp/6-31+g(d,p) scf=tight iop(5/33=1) extraoverlay

SH b3lyp/6-31G* geometry

0    2
  S      0.00000000      0.00000000      0.07973200
  H      0.00000000      0.00000000     -1.27570500
 
 
 
