%chk=G2-13.chk
#p b3lyp/6-31+g(d,p) scf=tight iop(5/33=1) extraoverlay

HYDROGEN FLUORIDE, //b3lyp/6-31G*

0    1
  F      0.00000000      0.00000000      0.09338900
  H      0.00000000      0.00000000     -0.84050200
 
 
 
