%chk=G2-27.chk
#p b3lyp/6-31+g(d,p) scf=tight iop(5/33=1) extraoverlay

CYANO RADICAL, 2-SIGMA-PLUS, //b3lyp/6-31g*

0    2
  C      0.00000000      0.00000000     -0.63211100
  N      0.00000000      0.00000000      0.54181000
 
 
 
