%chk=G2-25.chk
#p b3lyp/6-31+g(d,p) scf=tight iop(5/33=1) extraoverlay

ETHYLENE //b3lyp/6-31g*

0    1
  C      0.00000000      0.00000000      0.66546600
  C      0.00000000      0.00000000     -0.66546600
  H      0.00000000      0.92357900      1.23956500
  H      0.00000000     -0.92357900      1.23956500
  H      0.00000000      0.92357900     -1.23956500
  H      0.00000000     -0.92357900     -1.23956500
 
 
 
