%chk=G2-39.chk
#p b3lyp/6-31+g(d,p) scf=tight iop(5/33=1) extraoverlay

CO2 D*H //b3lyp/6-31g*

0    1
  C      0.00000000      0.00000000      0.00000000
  O      0.00000000      0.00000000      1.16915400
  O      0.00000000      0.00000000     -1.16915400
 
 
 
