%chk=G2-30.chk
#p b3lyp/6-31+g(d,p) scf=tight iop(5/33=1) extraoverlay

HCO BENT CS, //b3lyp/6-31g*

0    2
  C      0.06261600      0.58910000      0.00000000
  O      0.06261600     -0.59361600      0.00000000
  H     -0.87662500      1.21432600      0.00000000
 
 
 
