%chk=G2-49.chk
#p b3lyp/6-31+g(d,p) scf=tight iop(5/33=1) extraoverlay

CLO 2-PI //b3lyp/6-31g*

0    2
 Cl      0.00000000      0.00000000      0.51826900
  O      0.00000000      0.00000000     -1.10132300
 
 
 
