%chk=G2-47.chk
#p b3lyp/6-31+g(d,p) scf=tight iop(5/33=1) extraoverlay

Carbon monosulfide, CS, //b3lyp/6-31g*

0    1
  C      0.00000000      0.00000000     -1.12556600
  S      0.00000000      0.00000000      0.42208700
 
 
 
