%chk=G2-45.chk
#p b3lyp/6-31+g(d,p) scf=tight iop(5/33=1) extraoverlay

Sodium Chloride NaCl, //b3lyp/6-31g*

0    1
 Na      0.00000000      0.00000000     -1.44242800
 Cl      0.00000000      0.00000000      0.93333600
 
 
 
