%chk=G2-54.chk
#p b3lyp/6-31+g(d,p) scf=tight iop(5/33=1) extraoverlay

HOCl //b3lyp/6-31g*

0    1
  O      0.03663400      1.12169700      0.00000000
  H     -0.91584300      1.33264500      0.00000000
 Cl      0.03663400     -0.60624800      0.00000000
 
 
 
