%chk=G2-72.chk
#p b3lyp/6-31+g(d,p) scf=tight iop(5/33=1) extraoverlay

f2o  B3LYP 6-31G* geometry

0    1
  F      0.00000000      1.10967400     -0.26712100
  O      0.00000000      0.00000000      0.60102300
  F      0.00000000     -1.10967400     -0.26712100
 
 
 
