%chk=G2-8.chk
#p b3lyp/6-31+g(d,p) scf=tight iop(5/33=1) extraoverlay

NH,TRIPLET, //b3lyp/6-31G*

0    3
  N      0.00000000      0.00000000      0.13097800
  H      0.00000000      0.00000000     -0.91684900
 
 
 
