%chk=G2-9.chk
#p b3lyp/6-31+g(d,p) scf=tight iop(5/33=1) extraoverlay

NH2,2-B-1, //b3lyp/6-31G*

0    2
  N      0.00000000      0.00000000      0.14444300
  H      0.00000000      0.80458200     -0.50555200
  H      0.00000000     -0.80458200     -0.50555200
 
 
 
