%chk=G3-171.chk
#p b3lyp/6-31+g(d,p) scf=tight iop(5/33=1) extraoverlay

cyclopentanone C5H8O C2 symmetry b3lyp/6-31g* = -270.572856

0    1
  C      0.00000000      0.00000000      0.92852500
  O      0.00000000      0.00000000      2.13937500
  C      0.00000000      1.24464900      0.02944000
  C      0.00000000     -1.24464900      0.02944000
  C      0.29916600     -0.71341300     -1.38220800
  C     -0.29916600      0.71341300     -1.38220800
  H      1.00605500      1.68582500      0.08278700
  H     -1.00605500     -1.68582500      0.08278700
  H     -0.69847100      1.99836300      0.40527100
  H      0.69847100     -1.99836300      0.40527100
  H      1.38461400     -0.65861200     -1.53694100
  H     -1.38461400      0.65861200     -1.53694100
  H     -0.11057800     -1.34337400     -2.17758200
  H      0.11057800      1.34337400     -2.17758200
 
 
 
