%chk=G3-214.chk
#p b3lyp/6-31+g(d,p) scf=tight iop(5/33=1) extraoverlay

POCl3 C3v symmetry b3lyp/6-31g* = -1797.2335093

0    1
  P      0.00000000      0.00000000      0.43070600
  O      0.00000000      0.00000000      1.90269900
 Cl      0.00000000      1.84996500     -0.42514100
 Cl      1.60211600     -0.92498200     -0.42514100
 Cl     -1.60211600     -0.92498200     -0.42514100
 
 
 
