#p b3lyp 6-311+g(3df,2p) scf=tight nosymm

butadiene

0    1
    C     -1.83530106     -0.11816096      0.00000000
    C     -0.60658133      0.39647950      0.00000000
    C      0.60658133     -0.39647950      0.00000000
    C      1.83530106      0.11816096      0.00000000
    H     -1.99610173     -1.19153740      0.00000000
    H     -2.71599500      0.51216750      0.00000000
    H     -0.47787289      1.47682183      0.00000000
    H      0.47787289     -1.47682183      0.00000000
    H      1.99610173      1.19153740      0.00000000
    H      2.71599500     -0.51216750      0.00000000
 
 
 
