#p b3lyp 6-311+g(3df,2p) scf=tight nosymm

cpdiene

0    1
    C      0.00000000     -1.17162719      0.19064136
    C      0.00000000     -0.72992748     -1.07677692
    C      0.00000000      0.72992748     -1.07677692
    C      0.00000000      1.17162719      0.19064136
    C      0.00000000      0.00000000      1.11578988
    H      0.00000000     -2.20239389      0.51728689
    H      0.00000000     -1.34551447     -1.96712159
    H      0.00000000      1.34551447     -1.96712159
    H      0.00000000      2.20239389      0.51728689
    H     -0.87580402      0.00000000      1.77807532
    H      0.87580402      0.00000000      1.77807532
 
 
 
