#p b3lyp 6-311+g(3df,2p) scf=tight nosymm

ethine

0    1
    C      0.00000000      0.00000000     -0.59829031
    H      0.00000000      0.00000000     -1.66297130
    C      0.00000000      0.00000000      0.59829031
    H      0.00000000      0.00000000      1.66297130
 
 
 
