#p b3lyp 6-311+g(3df,2p) scf=tight nosymm

P10

0    1
    C      0.97404684      0.08744206     -1.12387118
    C     -0.36798061      0.80430888     -0.76861067
    C     -0.36798061      0.80430888      0.76861067
    C      0.97404684      0.08744206      1.12387118
    C      0.84049862     -1.34632424     -0.66641528
    C      0.84049862     -1.34632424      0.66641528
    C      1.85701766      0.65113901      0.00000000
    C     -1.62148695      0.05825815     -1.16810593
    C     -1.62148695      0.05825815      1.16810593
    N     -2.26760270     -0.30263768      0.00000000
    O     -2.01227248     -0.19474924      2.27653640
    O     -2.01227248     -0.19474924     -2.27653640
    H     -3.12090876     -0.84217921      0.00000000
    H      1.29440393      0.24261005     -2.15161766
    H     -0.39428882      1.80196011     -1.21074310
    H     -0.39428882      1.80196011      1.21074310
    H      1.29440393      0.24261005      2.15161766
    H      0.66432594     -2.18875521     -1.32240330
    H      0.66432594     -2.18875521      1.32240330
    H      1.91738683      1.74317383      0.00000000
    H      2.85961401      0.22100292      0.00000000
 
 
 
