#p b3lyp 6-311+g(3df,2p) scf=tight nosymm

P2

0    1
    C      1.24499907      0.00000000     -0.66342576
    C      0.00000000      0.00000000     -1.48950101
    C     -1.24499907      0.00000000     -0.66342576
    C     -1.24499907      0.00000000      0.66342576
    C      0.00000000      0.00000000      1.48950101
    C      1.24499907      0.00000000      0.66342576
    H      2.19097461      0.00000000     -1.19755616
    H      0.00000000      0.86814185     -2.16415273
    H      0.00000000     -0.86814185     -2.16415273
    H     -2.19097461      0.00000000     -1.19755616
    H     -2.19097461      0.00000000      1.19755616
    H      0.00000000     -0.86814185      2.16415273
    H      0.00000000      0.86814185      2.16415273
    H      2.19097461      0.00000000      1.19755616
 
 
 
