#p b3lyp/6-311+G(3df.2p) scf=tight

H_1.6

0 1
H 0.0 0.0 0.0
H 0.0 0.0 1.6

