#p b3lyp/6-311+G(3df.2p) scf=tight

H_2.4

0 1
H 0.0 0.0 0.0
H 0.0 0.0 2.4

