#p b3lyp/6-311+G(3df.2p) scf=tight

H_6.2

0 1
H 0.0 0.0 0.0
H 0.0 0.0 6.2

