$molecule
0    1
    O     -2.83357582      0.16519578      0.08636954
    H     -1.88111951      0.00000000     -0.00000000
    C     -3.27174157     -0.56587022      1.21095267
    H     -4.33456036     -0.37371974      1.33590575
    H     -3.13528090     -1.64309268      1.08899313
    H     -2.76471207     -0.26236410      2.13170015
$end
   
$rem
mem_static = 200
mem_total  = 7500
exchange = b3lyp
basis = G3Large
max_scf_cycles = 50
scf_convergence = 7
symmetry = false
xc_grid = 000075000302
$end
