$molecule
0    1
    N     -3.22611983      0.25648738     -0.18030339
    H     -2.26257462      0.00000000      0.00000000
    H     -3.77938155     -0.22680018      0.51478230
    C     -3.37744356      1.69836485      0.00000000
    H     -4.41484204      1.97971055     -0.17052721
    H     -3.08429800      2.08065327      0.98336201
    H     -2.78060122      2.21643022     -0.74846380
$end
   
$rem
mem_static = 200
mem_total  = 7500
exchange = b3lyp
basis = G3Large
max_scf_cycles = 50
scf_convergence = 7
symmetry = false
xc_grid = 000075000302
$end
