$molecule
0    1
    O      0.96788551      0.08801830      0.00148693
    H     -0.00000000      0.00000000     -0.00000000
    C      1.24276801      1.47118595      0.00000000
    H      2.32311945      1.59407331      0.00309808
    H      0.85086587      1.97760392     -0.88682020
    H      0.84547017      1.98053743      0.88273782
$end
   
$rem
mem_static = 200
mem_total  = 7500
exchange = b3lyp
basis = G3Large
max_scf_cycles = 50
scf_convergence = 7
symmetry = false
xc_grid = 000075000302
$end
