$molecule
0    1
    C     -3.56421841      0.05192952      1.38749749
    H     -3.47511555      0.09158447      2.46489807
    C     -4.11412829      1.12847653      0.69417173
    H     -4.45403204      2.00269571      1.23307303
    C     -4.23221313      1.07569563     -0.69417173
    H     -4.66423135      1.90871051     -1.23236400
    C     -3.79848646     -0.05269075     -1.38724045
    H     -3.89036838     -0.09438381     -2.46425282
    C     -3.24346111     -1.12766463     -0.69386470
    H     -2.89515471     -1.99840697     -1.23208468
    C     -3.12853173     -1.07585566      0.69361039
    H     -2.69606545     -1.90889689      1.23069791
$end
   
$rem
mem_static = 200
mem_total  = 7500
exchange = b3lyp
basis = G3Large
max_scf_cycles = 50
scf_convergence = 7
symmetry = false
xc_grid = 000075000302
$end
