$molecule
0    1
    C     -5.30421700      0.00000085     -0.00002468
    C     -4.79580415      1.43939132      0.00000000
    H     -5.14634660      1.97520031      0.88334658
    H     -3.70525893      1.46835511     -0.00079969
    H     -5.14771257      1.97559265     -0.88255257
    C     -4.79660170     -0.71998623      1.24673382
    H     -5.14767867     -1.75270687      1.26899887
    H     -3.70606730     -0.73430220      1.27250294
    H     -5.14848614     -0.22362316      2.15230228
    C     -4.79649917     -0.71999299     -1.24667256
    H     -5.14898879     -1.75221633     -1.26975632
    H     -3.70596932     -0.73583143     -1.27144830
    H     -5.14685966     -0.22267437     -2.15230581
    C     -6.83060635      0.00058748     -0.00004795
    H     -7.21878255      0.50986887     -0.88324855
    H     -7.21928676     -1.01872864      0.00062685
    H     -7.21876702      0.51106100      0.88246923
$end
   
$rem
mem_static = 200
mem_total  = 7500
exchange = b3lyp
basis = G3Large
max_scf_cycles = 50
scf_convergence = 7
symmetry = false
xc_grid = 000075000302
$end
