$molecule
0    1
    C      0.28586422     -0.37923179      1.18716033
    H      1.37346738     -0.38823650      1.28081663
    H     -0.12966762     -0.70230647      2.14066723
    C     -0.19546490      1.02087418      0.77242971
    H      0.43666789      1.80659477      1.18170429
    H     -1.20212399      1.19524576      1.15156723
    C     -0.20058412      1.01831468     -0.77747509
    H      0.46027693      1.77801029     -1.19044444
    H     -1.20071873      1.23288953     -1.15262285
    C      0.23225950     -0.39943494     -1.19426516
    H      1.31212607     -0.42931535     -1.34974876
    H     -0.24121381     -0.72912136     -2.11799959
    C     -0.12131599     -1.26729972      0.01277628
    H      0.37977327     -2.23430943      0.00882383
    H     -1.19762821     -1.44868896      0.03977598
$end
   
$rem
mem_static = 200
mem_total  = 7500
exchange = b3lyp
basis = G3Large
max_scf_cycles = 50
scf_convergence = 7
symmetry = false
xc_grid = 000075000302
$end
