$molecule
0    1
    N     -0.22961107     -0.91419328     -0.02988765
    H     -0.53680650     -1.87729017     -0.03710340
    C     -0.08893892     -0.30516999     -1.28457155
    O     -0.30713569     -0.93444062     -2.30586447
    C      0.32039915      1.08627230     -1.20590488
    H      0.47215400      1.63408971     -2.11977839
    C      0.49426371      1.66465762      0.00000000
    H      0.79166824      2.69680619      0.11098557
    N      0.29965957      0.97749288      1.16791680
    H      0.40488217      1.42788878      2.06167000
    C     -0.09577648     -0.34854421      1.22002579
    O     -0.29839615     -0.93987739      2.26230183
$end
   
$rem
mem_static = 200
mem_total  = 7500
exchange = b3lyp
basis = G3Large
max_scf_cycles = 50
scf_convergence = 7
symmetry = false
xc_grid = 000075000302
$end
