$molecule
0    1
    C     -3.81603785      0.66618869     -0.00000000
    H     -3.01784723      1.22838153     -0.46330871
    H     -4.61511532      1.22811183      0.46211415
    C     -3.81600865     -0.66618553      0.00015822
    H     -3.01771490     -1.22842253     -0.46308389
    H     -4.61496837     -1.22810848      0.46239310
$end
   
$rem
mem_static = 200
mem_total  = 7500
exchange = b3lyp
basis = G3Large
max_scf_cycles = 50
scf_convergence = 7
symmetry = false
xc_grid = 000075000302
$end
