$molecule
0    1
    C     -3.40739803      1.06606814     -1.54416992
    H     -3.32157988      2.07669079     -1.15082954
    H     -4.27881805      1.01210593     -2.19424056
    H     -2.53160384      0.83471348     -2.14370370
    C     -3.54366891      0.01424118     -0.46865252
    O     -3.40659234     -1.17863823     -0.70806040
    N     -3.84009351      0.49297371      0.77131981
    H     -3.96205190      1.48288781      0.88117614
    C     -4.08239063     -0.38279755      1.89620933
    H     -3.89217395     -1.39607380      1.55614155
    H     -3.41394002     -0.15100243      2.72303269
    H     -5.11379490     -0.31253800      2.23872627
$end
   
$rem
mem_static = 200
mem_total  = 7500
exchange = b3lyp
basis = G3Large
max_scf_cycles = 50
scf_convergence = 7
symmetry = false
xc_grid = 000075000302
$end
