$molecule
0    1
    C      0.00396247     -0.00082879     -0.69768646
    H     -0.20334396     -0.92090225     -1.22634683
    C      0.26593032      1.17849576     -1.39395676
    H      0.27484292      1.17712186     -2.47556956
    C      0.51717291      2.35967619     -0.69696271
    H      0.71992307      3.27436482     -1.23736771
    C      0.50911599      2.36140886      0.69696271
    H      0.70550994      3.27742015      1.23741409
    C      0.24988295      1.18192207      1.39393457
    H      0.24598407      1.18318362      2.47552085
    C     -0.00396247      0.00082879      0.69768646
    H     -0.21789471     -0.91778036      1.22616309
$end
   
$rem
mem_static = 200
mem_total  = 7500
exchange = b3lyp
basis = G3Large
max_scf_cycles = 50
scf_convergence = 7
symmetry = false
xc_grid = 000075000302
$end
