$molecule
0    1
    C     -3.29872192      0.00286633      0.01251769
    H     -2.23221250     -0.00000000     -0.00000000
    C     -4.51127694      0.00631506      0.02771635
    H     -5.57245513      0.00915763      0.03998539
$end
   
$rem
mem_static = 200
mem_total  = 7500
exchange = b3lyp
basis = G3Large
max_scf_cycles = 50
scf_convergence = 7
symmetry = false
xc_grid = 000075000302
$end
