$molecule
0    1
    C     -0.27518152     -1.72495784      0.73223655
    H      0.24422677     -1.68761943      1.68714717
    H      0.09816081     -2.56039874      0.14748746
    H     -1.33698581     -1.88582492      0.91123396
    C     -0.12048148     -0.46196867     -0.07915269
    O     -0.40096816     -0.41377721     -1.27018644
    N      0.33122194      0.61926180      0.61526061
    H      0.49532322      0.51822720      1.59982350
    C      0.46084756      1.92130902     -0.00000000
    H      0.44423912      1.77355873     -1.07517322
    H     -0.36087631      2.58397652      0.27225678
    H      1.40108803      2.38572717      0.28724517
$end
   
$rem
mem_static = 200
mem_total  = 7500
exchange = b3lyp
basis = G3Large
max_scf_cycles = 50
scf_convergence = 7
symmetry = false
xc_grid = 000075000302
$end
