#p b3lyp 6-311+g(3df,2p) scf=tight nosymm

C4

0    1
    C     -2.58116097      0.32774109      0.62108942
    C     -1.36620605      0.35987709     -0.29955952
    C     -0.04939215      0.23059810      0.46787643
    C      1.20933676      0.04815111     -0.42836251
    C      1.56054173     -1.44422978     -0.24145052
    O      0.90580978     -2.27787072     -1.18165145
    C      1.10001177     -1.68201676      1.19653737
    O     -3.73032488      0.38319509     -0.23916752
    O      2.31107068      0.81476006      0.04907546
    O     -1.45879705     -0.69686283     -1.25933645
    O     -0.10676315     -0.91246982      1.33388936
    C      2.28784268      2.17655996     -0.34633451
    H     -2.57012997     -0.59766484      1.20601737
    H     -2.56112897      1.19064403      1.30067237
    H     -1.35587806      1.32529902     -0.83092148
    H      0.07479784      1.13690803      1.07904538
    H      1.01461777      0.27690010     -1.48377043
    H      2.63400965     -1.59943277     -0.36853151
    H     -0.02424315     -1.99583374     -1.25460145
    H      0.85634378     -2.72868669      1.39208136
    H      1.85542271     -1.33135979      1.91397232
    H     -4.51639383      0.11821511      0.25349244
    H     -2.38444498     -0.74236883     -1.54469543
    H      2.27356968      2.27071795     -1.44240543
    H      1.42119574      2.71493192      0.06544746
    H      3.20029261      2.63429792      0.04159146
 
 
 
