#p b3lyp 6-311+g(3df,2p) scf=tight nosymm

C7

0    1
    C      2.34471644     -0.03667100      0.86868409
    C      1.27996152     -0.99334493      0.33476913
    C      0.20101660     -0.30558298     -0.51316981
    C     -0.84838132      0.50730896      0.28420113
    C     -2.07028023     -0.42282197      0.31925413
    O     -1.89926625     -1.27144391      1.45644005
    C     -1.93443524     -1.16473792     -1.00845777
    O      3.04321139      0.63263895     -0.17552383
    O     -1.23935729      1.69560188     -0.38799182
    O      1.98440047     -1.94630686     -0.46779181
    O     -0.52996235     -1.35081490     -1.20136876
    C     -0.30962436      2.76591080     -0.26106583
    H      1.89277448      0.74037195      1.49209305
    H      3.03972839     -0.61203096      1.49647404
    H      0.79498956     -1.49958889      1.18228807
    H      0.67761257      0.32941498     -1.26743775
    H     -0.51967135      0.73501995      1.30735706
    H     -2.99721217      0.15792999      0.38991313
    H     -2.58572820     -1.95094986      1.45425705
    H     -2.41324821     -2.14980484     -1.01335777
    H     -2.35531821     -0.55659096     -1.82186571
    H      3.36282437     -0.05460600     -0.77925779
    H      1.32059952     -2.42276382     -0.98952677
    H     -0.19307437      3.05890378      0.79287610
    H      0.67658157      2.50895282     -0.66919380
    H     -0.72285733      3.60600574     -0.82259779
 
 
 
