#p b3lyp 6-311+g(3df,2p) scf=tight nosymm

C8

0    1
    C      2.32867164     -0.08037734      0.85377482
    C      1.25468372     -1.03336327      0.33127886
    C      0.18493379     -0.34803632     -0.53132308
    C     -0.86195013      0.48160062      0.25128487
    C     -2.10673104     -0.43150831      0.26724587
    O     -2.05730304     -1.37189625      1.34135279
    C     -1.95510505     -1.19749826     -1.03877504
    O      3.03649359      0.56490961     -0.19859610
    O     -1.22628410      1.67926253     -0.41922909
    O      1.95026667     -2.00616320     -0.45177708
    O     -0.54643515     -1.39449124     -1.20952603
    C     -0.26844117      2.72655946     -0.30831409
    H      1.88437967      0.71214660      1.46354578
    H      3.01585759     -0.65340330      1.49232178
    H      0.76129075     -1.52249024      1.18511780
    H      0.67169776      0.27675063     -1.28801502
    H     -0.53030015      0.71138960      1.27591279
    H     -3.02329097      0.16834964      0.29940586
    H     -2.25114403     -0.91601128      2.17072573
    H     -2.43931202     -2.17619019     -1.00648004
    H     -2.35776302     -0.60726530     -1.87282498
    H      3.34752356     -0.13465534     -0.79264806
    H      1.28119071     -2.48713717     -0.96319005
    H     -0.13107818      3.02064243      0.74317783
    H      0.70590776      2.44394248     -0.72705706
    H     -0.66775914      3.57493339     -0.86738905
 
 
 
