#p b3lyp 6-311+g(3df,2p) scf=tight nosymm

C9

0    1
    C      2.79383960     -0.43419743     -0.62654261
    C      1.57087469      0.16137853      0.07920734
    C      0.24746679     -0.33103344     -0.50818062
    C     -1.04516412      0.28449952      0.05803334
    C     -2.06681104     -0.81244740     -0.25846863
    O     -3.20574896     -0.82909540      0.58839130
    C     -1.26079010     -2.09991131     -0.07017765
    O      3.99824852      0.06688753     -0.06252065
    O     -1.45487409      1.50131143     -0.54437861
    O      1.64299269     -0.11561645      1.48170424
    O      0.13054080     -1.73139134     -0.18758964
    C     -1.07513411      2.68942934      0.14454834
    H      2.79899660     -0.14643145     -1.68305553
    H      2.75610961     -1.53203135     -0.56928461
    H      1.62326669      1.25167245     -0.01082965
    H      0.25906379     -0.18550045     -1.60037454
    H     -0.96213312      0.39896351      1.14780426
    H     -2.37539702     -0.68978641     -1.30659456
    H     -3.74495892     -0.05267746      0.38567732
    H     -1.49333008     -2.86359325     -0.81924559
    H     -1.44016209     -2.51309728      0.92843428
    H      3.91291952     -0.01518946      0.89930928
    H      1.35635871     -1.03685939      1.59259723
    H     -1.43106609      2.67560934      1.18375026
    H      0.01152481      2.84020333      0.14446134
    H     -1.54663308      3.51890428     -0.38667563
 
 
 
