#p b3lyp 6-311+g(3df,2p) scf=tight nosymm

01_Water-Water_2_y_-30

0    1
    O      0.05261620      0.00000000      0.00000000
    H      0.00220694     -0.45430696      0.84381964
    H      0.75775968     -0.45466058     -0.46587642
 
 
 
