#p b3lyp 6-311+g(3df,2p) scf=tight nosymm

01_Water-Water_2_y_+30

0    1
    O      0.05269114      0.00000000      0.00000000
    H      0.75825575     -0.45430696      0.46556552
    H      0.00180206     -0.45466058     -0.84361038
 
 
 
