#p b3lyp 6-311+g(3df,2p) scf=tight nosymm

01_Water-Water_1_z_-30

0    1
    O     -1.88588601      1.00571357      0.00000000
    H     -2.44061717      0.80139926     -0.75597387
    H     -2.44034350      0.80083294      0.75603256
 
 
 
