#p b3lyp 6-311+g(3df,2p) scf=tight nosymm

01_Water-Water_1_z_+30

0    1
    O     -1.90351197     -1.00571357      0.00000000
    H     -2.00393616     -1.58828201     -0.75597387
    H     -2.00330888     -1.58832816      0.75603256
 
 
 
