#p b3lyp 6-311+g(3df,2p) scf=tight nosymm

01_Water-Water_1_y_-30

0    1
    O     -1.92343043      0.00000000     -1.00571357
    H     -1.87302118     -0.45430696     -1.84953321
    H     -2.62857391     -0.45466058     -0.53983715
 
 
 
