#p b3lyp 6-311+g(3df,2p) scf=tight nosymm

01_Water-Water_1_y_+30

0    1
    O     -1.92335896      0.00000000      1.00571357
    H     -2.62892358     -0.45430696      0.54014806
    H     -1.87246988     -0.45466058      1.84932395
 
 
 
