#p b3lyp 6-311+g(3df,2p) scf=tight nosymm

01_Water-Water_2_z_+30

0    1
    O     -0.00212713      0.00000000      0.00000000
    H      0.55260403     -0.20431431      0.75597387
    H      0.55233036     -0.20488064     -0.75603256
 
 
 
