#p b3lyp 6-311+g(3df,2p) scf=tight nosymm

01_Water-Water_2_z_-30

0    1
    O      0.03621673      0.00000000      0.00000000
    H      0.13664092     -0.58256843      0.75597387
    H      0.13601363     -0.58261459     -0.75603256
 
 
 
