#p b3lyp 6-311+g(3df,2p) scf=tight nosymm

02_Water-MeOH_2_z_+30

0    1
    O      0.00485000      0.00000000      0.00000000
    H      0.55914471     -0.11500362      0.77540963
    C      0.72421777     -0.50299771     -1.12303759
    H      0.08171265     -0.37314844     -1.98734855
    H      1.64914703      0.04857357     -1.28945362
    H      0.95010722     -1.56402093     -1.01921345
 
 
 
