#p b3lyp 6-311+g(3df,2p) scf=tight nosymm

03_Water-MeNH2_2_y_+30

0    1
    N      0.04804641      0.00000000      0.00000000
    H     -0.10854174     -0.58582471     -0.81032768
    H      0.71716598     -0.49961523      0.57175956
    C      0.62343874      1.27963793     -0.42380313
    H      0.80264204      1.89705928      0.45306887
    H      1.56049242      1.19698549     -0.97849155
    H     -0.09529648      1.80309963     -1.04957233
 
 
 
