#p b3lyp 6-311+g(3df,2p) scf=tight nosymm

04_Water-Peptide_1_z_+30

0    1
    C     -0.40394263     -2.78430087      0.05977327
    H     -0.42057856     -3.87078994      0.08971657
    H      0.13179087     -2.40310113      0.92551872
    H      0.14212626     -2.45166452     -0.81943075
    C     -1.78037879     -2.17044145      0.03449353
    O     -1.94941492     -0.95240338      0.00000000
    N     -2.81416850     -3.04728692      0.05218403
    H     -2.60040070     -4.02713247      0.08072385
    C     -4.19605776     -2.61967420      0.03249787
    H     -4.19460364     -1.53512589      0.00103092
    H     -4.71157476     -3.00192703     -0.84636131
    H     -4.72107421     -2.95042475      0.92646241
 
 
 
