#p b3lyp 6-311+g(3df,2p) scf=tight nosymm

05_MeOH-MeOH_1_y_+30

0    1
    O     -1.87311670      0.00000000      0.96837126
    H     -2.58344979     -0.57716302      0.67843886
    C     -1.59411053     -0.30437276      2.33219544
    H     -0.77872723      0.34413340      2.63502841
    H     -2.45292871     -0.10696706      2.97318858
    H     -1.27713296     -1.33886286      2.46218981
 
 
 
