#p b3lyp 6-311+g(3df,2p) scf=tight nosymm

05_MeOH-MeOH_1_z_-30

0    1
    O     -1.83532352      0.96837126      0.00000000
    H     -2.53111044      0.70363358     -0.60625538
    C     -2.36880846      0.92491955      1.32060947
    H     -1.56414843      1.20917928      1.99056217
    H     -3.19177743      1.62800537      1.44631672
    H     -2.70460955     -0.07573188      1.59167668
 
 
 
