#p b3lyp 6-311+g(3df,2p) scf=tight nosymm

05_MeOH-MeOH_2_z_+30

0    1
    O     -0.00772150      0.00000000      0.00000000
    H      0.68806541     -0.26473769      0.60625538
    C      0.52576344     -0.04345171     -1.32060947
    H     -0.27889659      0.24080801     -1.99056217
    H      1.34873240      0.65963410     -1.44631672
    H      0.86156453     -1.04410314     -1.59167668
 
 
 
