#p b3lyp 6-311+g(3df,2p) scf=tight nosymm

05_MeOH-MeOH_2_y_-30

0    1
    O      0.06550786      0.00000000      0.00000000
    H      0.16958557     -0.57716302      0.76013271
    C      1.10711115     -0.30437276     -0.92353852
    H      0.96168054      0.34413340     -1.78109766
    H      2.09163659     -0.10696706     -0.50027673
    H      1.06120079     -1.33886286     -1.26304634
 
 
 
