#p b3lyp 6-311+g(3df,2p) scf=tight nosymm

06_MeOH-MeNH2_1_z_-30

0    1
    N     -2.15327159      0.98468068      0.00000000
    H     -2.71213540      0.69631256      0.79295011
    H     -2.69449520      0.73973889     -0.81934493
    C     -1.95466702      2.43712105      0.04137851
    H     -1.36506520      2.73952608     -0.82062624
    H     -2.87649514      3.02239239      0.04713268
    H     -1.38418027      2.69220589      0.93109269
 
 
 
