#p b3lyp 6-311+g(3df,2p) scf=tight nosymm

08_MeOH-Water_1_y_-30

0    1
    O     -1.88619094     -0.00000000     -0.99260572
    H     -1.87586287     -0.40763820     -1.86133659
    H     -2.63222911     -0.41149480     -0.55093188
 
 
 
