#p b3lyp 6-311+g(3df,2p) scf=tight nosymm

08_MeOH-Water_1_z_-30

0    1
    O     -1.88736804      0.99260572     -0.00000000
    H     -2.45961259      0.85229121     -0.75750704
    H     -2.46139369      0.84886631      0.75551985
 
 
 
