#p b3lyp 6-311+g(3df,2p) scf=tight nosymm

08_MeOH-Water_2_z_+30

0    1
    O     -0.00251178      0.00000000      0.00000000
    H      0.56973277     -0.14031451      0.75750704
    H      0.57151386     -0.14373941     -0.75551985
 
 
 
