#p b3lyp 6-311+g(3df,2p) scf=tight nosymm

08_MeOH-Water_2_y_-30

0    1
    O      0.05131496      0.00000000      0.00000000
    H      0.04098688     -0.40763820      0.86873087
    H      0.79735313     -0.41149480     -0.44167384
 
 
 
