#p b3lyp 6-311+g(3df,2p) scf=tight nosymm

08_MeOH-Water_2_y_+30

0    1
    O      0.05087487      0.00000000      0.00000000
    H      0.79805383     -0.40763820      0.44330981
    H      0.04139319     -0.41149480     -0.86692493
 
 
 
