#p b3lyp 6-311+g(3df,2p) scf=tight nosymm

08_MeOH-Water_2_z_-30

0    1
    O      0.03217766      0.00000000      0.00000000
    H      0.19678400     -0.56573557      0.75750704
    H      0.19470850     -0.56899050     -0.75551985
 
 
 
