#p b3lyp 6-311+g(3df,2p) scf=tight nosymm

08_MeOH-Water_1_z_+30

0    1
    O     -1.85285250     -0.99260572     -0.00000000
    H     -2.01745885     -1.55834129     -0.75750704
    H     -2.01538335     -1.56159622      0.75551985
 
 
 
