#p b3lyp 6-311+g(3df,2p) scf=tight nosymm

08_MeOH-Water_1_y_+30

0    1
    O     -1.88679933     -0.00000000      0.99260572
    H     -2.63397830     -0.40763820      0.54929591
    H     -1.87731765     -0.41149480      1.85953065
 
 
 
