#p b3lyp 6-311+g(3df,2p) scf=tight nosymm

09_MeNH2-MeOH_1_y_+30

0    1
    O     -2.16398900      0.00000000      1.13128731
    H     -1.99321401     -0.40960642      1.98265737
    C     -2.61771156      1.32388263      1.37753126
    H     -2.80787537      1.77507145      0.40868019
    H     -3.54500902      1.34028584      1.95146427
    H     -1.86988388      1.92607243      1.89542846
 
 
 
