#p b3lyp 6-311+g(3df,2p) scf=tight nosymm

10_MeNH2-MeNH2_2_y_+30

0    1
    N      0.04724488      0.00000000      0.00000000
    H     -0.30787523      0.03765438     -0.94698182
    H      0.88911090     -0.55917711     -0.04658091
    C      0.38184799      1.35631200      0.44456475
    H      0.81131719      1.30532932      1.44272876
    H      1.08488475      1.89076899     -0.19904456
    H     -0.53415309      1.93848226      0.51329158
 
 
 
