#p b3lyp 6-311+g(3df,2p) scf=tight nosymm

11_MeNH2-Peptide_2_z_+30

0    1
    C     -0.23495266      1.11713103     -1.87148720
    H      0.34478468      0.57224997     -2.61290131
    H     -0.40670112      2.13130601     -2.22454839
    H     -1.18724318      0.60325117     -1.75017759
    C      0.49657172      1.06069151     -0.55468133
    O      0.76992551      0.00000000      0.00000000
    N      0.81296915      2.25909490      0.00000000
    H      0.64267037      3.09577391     -0.52601753
    C      1.53743325      2.33182094      1.25038234
    H      1.15087581      1.57285222      1.92416675
    H      2.60351365      2.15149018      1.11464494
    H      1.39399893      3.31413592      1.69092212
 
 
 
