#p b3lyp 6-311+g(3df,2p) scf=tight nosymm

12_MeNH2-Water_1_y_+30

0    1
    O     -2.65843221      0.26512447      1.44379274
    H     -1.84099388     -0.00000000      0.98980307
    H     -2.99921515     -0.55552674      1.80173337
 
 
 
