#p b3lyp 6-311+g(3df,2p) scf=tight nosymm

12_MeNH2-Water_2_y_+30

0    1
    O      0.93735047      0.26512447     -0.45398967
    H      0.11991214      0.00000000      0.00000000
    H      1.27813341     -0.55552674     -0.81193031
 
 
 
