#p b3lyp 6-311+g(3df,2p) scf=tight nosymm

12_MeNH2-Water_2_y_-30

0    1
    O      0.91468222      0.26512447      0.48092752
    H      0.11279647      0.00000000      0.00000000
    H      1.39505937     -0.55552674      0.59708388
 
 
 
