#p b3lyp 6-311+g(3df,2p) scf=tight nosymm

12_MeNH2-Water_1_y_-30

0    1
    O     -2.64234232      0.26512447     -1.47073058
    H     -1.84045656     -0.00000000     -0.98980307
    H     -3.12271947     -0.55552674     -1.58688695
 
 
 
