#p b3lyp 6-311+g(3df,2p) scf=tight nosymm

12_MeNH2-Water_1_z_+30

0    1
    O     -2.81868615     -1.22765714     -0.01555257
    H     -1.87646187     -0.98980307     -0.00000000
    H     -2.81894059     -2.17541043      0.12404164
 
 
 
