#p b3lyp 6-311+g(3df,2p) scf=tight nosymm

12_MeNH2-Water_1_z_-30

0    1
    O     -2.93293920      1.68686619     -0.01555257
    H     -2.25583940      0.98980307     -0.00000000
    H     -3.75384485      1.21320989      0.12404164
 
 
 
