#p b3lyp 6-311+g(3df,2p) scf=tight nosymm

12_MeNH2-Water_2_z_+30

0    1
    O      0.83487588      0.69706312      0.01555257
    H      0.15777608      0.00000000      0.00000000
    H      1.65578153      0.22340683     -0.12404164
 
 
 
