#p b3lyp 6-311+g(3df,2p) scf=tight nosymm

12_MeNH2-Water_2_z_-30

0    1
    O      1.04441532     -0.23785407      0.01555257
    H      0.10219105      0.00000000      0.00000000
    H      1.04466976     -1.18560736     -0.12404164
 
 
 
