#p b3lyp 6-311+g(3df,2p) scf=tight nosymm

13_Peptide-MeOH_2_z_+30

0    1
    O      0.12357909      0.00000000      0.00000000
    H      0.89613289      0.12219855     -0.55636269
    C      0.21238447      0.91701894      1.08596428
    H     -0.67116670      0.76090595      1.69728765
    H      1.09447439      0.73587688      1.69979347
    H      0.21906872      1.95225674      0.74482813
 
 
 
