#p b3lyp 6-311+g(3df,2p) scf=tight nosymm

13_Peptide-MeOH_2_y_-30

0    1
    O      0.30548140      0.00000000      0.00000000
    H      1.21599162     -0.28044986     -0.11674898
    C      0.22618414      0.74975901      1.20818125
    H     -0.80973983      1.05633677      1.31598569
    H      0.50240018      0.15184042      2.07644355
    H      0.85003652      1.64295912      1.17445249
 
 
 
