#p b3lyp 6-311+g(3df,2p) scf=tight nosymm

13_Peptide-MeOH_1_y_+30

0    1
    O     -1.91547236     -0.00000000      1.00740139
    H     -2.26961989     -0.28044986      1.85430086
    C     -2.92213938      0.74975901      0.33463732
    H     -2.49753878      1.05633677     -0.61640137
    H     -3.81218461      0.15184042      0.13971628
    H     -3.20485562      1.64295912      0.89177371
 
 
 
