#p b3lyp 6-311+g(3df,2p) scf=tight nosymm

15_Peptide-Peptide_2_y_+30

0    1
    C      0.98288512      1.31422723      1.76112137
    H      1.94913449      1.43356421      2.24510458
    H      0.27223639      0.89039284      2.46561919
    H      0.61043324      2.29479075      1.47018624
    C      1.03896583      0.43650137      0.53542895
    O      0.02091880      0.00000000      0.00000000
    N      2.28057109      0.18133011      0.05816838
    H      3.06359017      0.58299746      0.54070175
    C      2.50752744     -0.60601070     -1.13495151
    H      1.54146177     -0.97327734     -1.46507042
    H      2.94837489     -0.00280399     -1.92629836
    H      3.15983323     -1.45031546     -0.92318767
 
 
 
