#p b3lyp 6-311+g(3df,2p) scf=tight nosymm

15_Peptide-Peptide_1_z_-30

0    1
    C     -1.58347832      2.09908256     -2.00615901
    H     -2.03892598      2.49983387     -2.90842545
    H     -0.95735246      1.24818684     -2.26094765
    H     -0.93983626      2.85973287     -1.56797585
    C     -2.59514217      1.66965644     -0.97271859
    O     -2.28170512      0.98466511      0.00000000
    N     -3.86059164      2.10561764     -1.18020144
    H     -4.03807919      2.67189563     -1.98959713
    C     -4.94111537      1.82031545     -0.26040748
    H     -4.54314512      1.16646422      0.50851672
    H     -5.31281084      2.73143704      0.20449527
    H     -5.76080066      1.31864181     -0.76995324
 
 
 
