#p b3lyp 6-311+g(3df,2p) scf=tight nosymm

16_Peptide-Water_2_z_+30

0    1
    O      0.01070371      0.00000000      0.00000000
    H      0.54572438      0.22465067      0.76416029
    H      0.58885025      0.16617130     -0.74753498
 
 
 
