#p b3lyp 6-311+g(3df,2p) scf=tight nosymm

16_Peptide-Water_2_y_-30

0    1
    O      0.03019019      0.00000000      0.00000000
    H      0.14665215     -0.07295716      0.94961564
    H      0.90952188     -0.14516471     -0.35549666
 
 
 
