#p b3lyp 6-311+g(3df,2p) scf=tight nosymm

16_Peptide-Water_2_y_+30

0    1
    O      0.03020495      0.00000000      0.00000000
    H      0.91082720     -0.07295716      0.37394881
    H      0.16200165     -0.14516471     -0.93927191
 
 
 
