#p b3lyp 6-311+g(3df,2p) scf=tight nosymm

16_Peptide-Water_1_y_-30

0    1
    O     -1.95472419     -0.00000000     -1.04043517
    H     -2.07118615     -0.07295716     -1.99005081
    H     -2.83405588     -0.14516471     -0.68493851
 
 
 
