#p b3lyp 6-311+g(3df,2p) scf=tight nosymm

16_Peptide-Water_1_y_+30

0    1
    O     -1.95102683     -0.00000000      1.04043517
    H     -2.83164908     -0.07295716      0.66648636
    H     -2.08282353     -0.14516471      1.97970708
 
 
 
