#p b3lyp 6-311+g(3df,2p) scf=tight nosymm

16_Peptide-Water_1_z_+30

0    1
    O     -1.91283468     -1.04043517     -0.00000000
    H     -2.37489820     -1.39145134     -0.76416029
    H     -2.34581652     -1.45803912      0.74753498
 
 
 
