#p b3lyp 6-311+g(3df,2p) scf=tight nosymm

16_Peptide-Water_2_z_-30

0    1
    O      0.01384504      0.00000000      0.00000000
    H      0.47590856     -0.35101617      0.76416029
    H      0.44682688     -0.41760395     -0.74753498
 
 
 
