#p b3lyp 6-311+g(3df,2p) scf=tight nosymm

16_Peptide-Water_1_z_-30

0    1
    O     -2.29145935      1.04043517     -0.00000000
    H     -2.82648003      1.26508584     -0.76416029
    H     -2.86960590      1.20660647      0.74753498
 
 
 
