#p b3lyp 6-311+g(3df,2p) scf=tight nosymm

17_Uracil-Uracil_BP_2_z_+30

0    1
    N      2.64642492      1.44183169     -0.00138461
    H      2.52805772      2.44576852      0.00008823
    C      3.97129132      0.97288149     -0.00414120
    O      4.90323125      1.75855108     -0.00464528
    C      4.05929703     -0.47468238     -0.00616272
    H      5.03269943     -0.93379419     -0.00834064
    C      2.92881136     -1.21290533     -0.00528251
    H      2.94184530     -2.29282174     -0.00670194
    N      1.68323310     -0.64926773     -0.00252636
    H      0.83398328     -1.22598321     -0.00193172
    C      1.48610822      0.70660673     -0.00048698
    O      0.37376990      1.22598321      0.00193172
 
 
 
