#p b3lyp 6-311+g(3df,2p) scf=tight nosymm

17_Uracil-Uracil_BP_1_y_-30

0    1
    N     -3.82353105      0.22738870     -2.14607684
    H     -4.16873663      1.15600710     -2.34708206
    C     -4.61549775     -0.84116728     -2.60013599
    O     -5.65490965     -0.62672743     -3.19965867
    C     -4.05569925     -2.13879722     -2.27460193
    H     -4.58803876     -3.02310091     -2.57943344
    C     -2.88773498     -2.21287421     -1.60129381
    H     -2.43060263     -3.15462623     -1.33572931
    N     -2.19623545     -1.10196060     -1.20523891
    H     -1.30927563     -1.17678595     -0.69383905
    C     -2.63448296      0.17082356     -1.46061610
    O     -2.02391649      1.17678595     -1.11089825
 
 
 
