#p b3lyp 6-311+g(3df,2p) scf=tight nosymm

18_Water-Pyridine_2_z_+30

0    1
    N      0.08285010      0.00000000      0.00000000
    C      0.11092342      1.33846416      0.06011045
    H     -0.84885723      1.83574465      0.00000000
    C      1.28410895      2.07441636      0.19481366
    H      1.24347012      3.15321679      0.23772278
    C      2.49479760      1.39413544      0.27300468
    H      3.42625720      1.93251848      0.37912514
    C      2.47837825      0.00460953      0.21341701
    H      3.39164175     -0.56979665      0.27115112
    C      1.25513580     -0.64461225      0.07792383
    H      1.20575235     -1.72512270      0.03195482
 
 
 
