#p b3lyp 6-311+g(3df,2p) scf=tight nosymm

19_MeOH-Pyridine_1_z_+30

0    1
    N     -1.80064980     -0.97639532      0.00000000
    C     -2.39715989     -1.33774769     -1.14433787
    H     -1.89512239     -1.03852462     -2.05563075
    C     -3.58792783     -2.05587766     -1.19226314
    H     -4.02225442     -2.31969037     -2.14576729
    C     -4.19672317     -2.42157184      0.00373761
    H     -5.12195581     -2.98058460      0.00517841
    C     -3.58659401     -2.05198085      1.19788703
    H     -4.01979692     -2.31266766      2.15264911
    C     -2.39589813     -1.33399779      1.14617306
    H     -1.89277347     -1.03173282      2.05597216
 
 
 
