#p b3lyp 6-311+g(3df,2p) scf=tight nosymm

21_AcNH2-AcNH2_1_z_-30

0    1
    C     -3.31657321      1.39407393      0.00037588
    O     -3.29732662      0.16117658      0.00067007
    N     -2.20024271      2.14520600     -0.00159522
    H     -1.28179343      1.69775059     -0.00067007
    H     -2.26587263      3.14435419     -0.00079600
    C     -4.62883807      2.14028895      0.00524116
    H     -4.51175938      3.22039704     -0.02395096
    H     -5.17988516      1.86267459      0.90044680
    H     -5.21249467      1.81732026     -0.85290947
 
 
 
