#p b3lyp 6-311+g(3df,2p) scf=tight nosymm

21_AcNH2-AcNH2_1_z_+30

0    1
    C     -3.24224377     -1.58657792      0.00037588
    O     -2.16490005     -2.18635856      0.00067007
    N     -3.33457797     -0.24424131     -0.00159522
    H     -2.48784559      0.32743139     -0.00067007
    H     -4.23268066      0.19849560     -0.00079600
    C     -4.54461736     -2.34992511      0.00524116
    H     -5.42147906     -1.70847795     -0.02395096
    H     -4.57971983     -2.96595307      0.90044680
    H     -4.55674658     -3.01687091     -0.85290947
 
 
 
