#p b3lyp 6-311+g(3df,2p) scf=tight nosymm

22_AcOH-Uracil_2_y_+30

0    1
    N      2.22318253     -0.30055981     -1.24586255
    H      2.54207383     -1.24111726     -1.43479935
    C      3.04382195      0.74055164     -1.71843335
    O      4.07378481      0.48748894     -2.31738627
    C      2.52056199      2.05745690     -1.40975752
    H      3.07590373      2.92228173     -1.72913349
    C      1.35788045      2.17390145     -0.73410242
    H      0.92711108      3.13107066     -0.48038994
    N      0.63815553      1.08647813     -0.32018052
    H     -0.24560969      1.18424894      0.19318166
    C      1.04159645     -0.19715783     -0.55963880
    O      0.40319036     -1.18424894     -0.19318166
 
 
 
