#p b3lyp 6-311+g(3df,2p) scf=tight nosymm

23_AcNH2-Uracil_1_y_-30

0    1
    N     -3.86039180     -0.02684630     -2.13171795
    H     -4.28085632     -0.91855421     -2.35399237
    C     -4.57058659      1.11241989     -2.54674802
    O     -5.63001448      0.99569674     -3.13916131
    C     -3.90668672      2.35105568     -2.19244995
    H     -4.36939544      3.28355563     -2.46552074
    C     -2.72955326      2.31133369     -1.53150387
    H     -2.19566129      3.20555423     -1.24499809
    N     -2.12247694      1.14040895     -1.17392090
    H     -1.22244607      1.14829441     -0.66734293
    C     -2.66328413     -0.08502353     -1.45842055
    O     -2.13446938     -1.14829441     -1.14461976
 
 
 
