#p b3lyp 6-311+g(3df,2p) scf=tight nosymm

26_Uracil-Uracil_pi-pi_1_y_+30

0    1
    N     -3.17095466      0.94351253      1.57365318
    H     -2.97130391      1.93077344      1.46470053
    C     -2.58047157      0.30686617      2.67274680
    O     -1.90505222      0.94049584      3.46958984
    N     -4.01616189     -0.99675650      0.66172663
    H     -2.45739897     -1.68789434      3.55153182
    C     -3.52339538     -1.71047622      1.71901795
    H     -3.71269588     -2.77304694      1.69067703
    C     -2.84289591     -1.11946364      2.72292828
    H     -4.41621307     -1.46593588     -0.13483929
    C     -3.83221323      0.36457855      0.50774144
    O     -4.20635434      0.97824141     -0.47304631
 
 
 
