#p b3lyp 6-311+g(3df,2p) scf=tight nosymm

26_Uracil-Uracil_pi-pi_2_z_-30

0    1
    N      0.85907563      0.85873639     -0.03733121
    H      1.15579014      1.82741889     -0.04280082
    C      0.57381163      0.28829774     -1.28441575
    O      0.72910511      0.93029153     -2.31221174
    N      0.12797076     -0.95958971      1.17502397
    H     -0.13534800     -1.60561979     -2.10700220
    C     -0.14064341     -1.62863780      0.01299957
    H     -0.54222538     -2.62373532      0.13219378
    C      0.07919419     -1.07311855     -1.19666202
    H     -0.15150371     -1.33999673      2.06489587
    C      0.60399925      0.33750942      1.21640472
    O      0.76674296      0.95214614      2.25286238
 
 
 
