#p b3lyp 6-311+g(3df,2p) scf=tight nosymm

28_Benzene-Uracil_pi-pi_1_y_-30

0    1
    N     -3.25379679      0.89489490     -1.55453539
    H     -2.91216538      1.83432948     -1.40488424
    C     -4.06074889      0.36644005     -0.53945373
    O     -4.36263368      1.04236767      0.42966952
    C     -4.46833764     -1.00627939     -0.78402583
    H     -5.10247851     -1.49406118     -0.06399001
    C     -4.05401081     -1.63848157     -1.90091516
    H     -4.33055999     -2.65741511     -2.12838500
    N     -3.24679588     -1.02574856     -2.82059824
    H     -2.94507224     -1.50484861     -3.65220572
    C     -2.79857146      0.27970390     -2.69949384
    O     -2.08676157      0.81332470     -3.52787548
 
 
 
