#p b3lyp 6-311+g(3df,2p) scf=tight nosymm

29_Pyridine-Uracil_pi-pi_1_z_-30

0    1
    N     -2.66685010      2.29963223     -0.32323090
    H     -1.97087983      2.93509260     -0.68823280
    C     -2.84600313      2.31650117      1.06606495
    O     -2.20194233      3.08284219      1.76398292
    C     -3.83006141      1.35581775      1.52881754
    H     -4.04514526      1.30047152      2.58195314
    C     -4.44193475      0.54498159      0.64103522
    H     -5.16627903     -0.19867847      0.93770391
    N     -4.18222754      0.61196383     -0.69945631
    H     -4.59866160     -0.04139187     -1.34143737
    C     -3.26094418      1.47843719     -1.25775033
    O     -3.01017213      1.50815274     -2.44753846
 
 
 
