#p b3lyp 6-311+g(3df,2p) scf=tight nosymm

29_Pyridine-Uracil_pi-pi_1_z_+30

0    1
    N     -3.66307856     -0.81510287     -0.32323090
    H     -3.86541825      0.10535524     -0.68823280
    C     -3.76726400     -0.96181948      1.06606495
    O     -4.10890439     -0.02087596      1.76398292
    C     -3.42731690     -2.29438066      1.52881754
    H     -3.48692759     -2.50832186      2.58195314
    C     -3.03104886     -3.22969660      0.64103522
    H     -2.74919249     -4.22882717      0.93770391
    N     -2.95920357     -2.97129244     -0.69945631
    H     -2.60159796     -3.65861276     -1.34143737
    C     -3.24894983     -1.74020096     -1.25775033
    O     -3.14929823     -1.50816822     -2.44753846
 
 
 
