#p b3lyp 6-311+g(3df,2p) scf=tight nosymm

29_Pyridine-Uracil_pi-pi_1_y_+30

0    1
    N     -3.52049102      0.85709343      1.27744138
    H     -3.45617669      1.75540338      0.81884159
    C     -2.96751234      0.78212584      2.56239965
    O     -2.46734315      1.76782703      3.07951310
    C     -3.05819163     -0.54187955      3.14909403
    H     -2.66897110     -0.69735271      4.14043371
    C     -3.60988544     -1.55002093      2.44249188
    H     -3.68279505     -2.55622157      2.82714976
    N     -4.11435495     -1.36215901      1.18588120
    H     -4.46475971     -2.13619867      0.64689160
    C     -4.07773341     -0.15112938      0.52007534
    O     -4.49741566     -0.00000894     -0.61147000
 
 
 
