#p b3lyp 6-311+g(3df,2p) scf=tight nosymm

30_Benzene-Ethene_2_y_-30

0    1
    C      0.15981542      0.66502748     -0.03235757
    H      0.63256348      1.17382684     -0.86011499
    H     -0.28887104      1.27836776      0.73578863
    C      0.12208753     -0.66502745      0.03300162
    H      0.56298193     -1.27836582     -0.73964371
    H     -0.35839097     -1.17382912      0.85629561
 
 
 
