#p b3lyp 6-311+g(3df,2p) scf=tight nosymm

30_Benzene-Ethene_2_z_+30

0    1
    C      0.03963741      0.57625113     -0.03773332
    H     -0.21863070      1.01465085     -0.99096629
    H     -0.27093051      1.10516900      0.85184404
    C      0.70467031     -0.57560709      0.03773335
    H      1.00744506     -1.10902216     -0.85184433
    H      0.95520903     -1.01847205      0.99096611
 
 
 
