#p b3lyp 6-311+g(3df,2p) scf=tight nosymm

30_Benzene-Ethene_2_z_-30

0    1
    C      0.70466205      0.57561026     -0.03773332
    H      0.95519329      1.01847687     -0.99096629
    H      1.00743441      1.10902890      0.85184404
    C      0.03964002     -0.57625424      0.03773335
    H     -0.27092360     -1.10517240     -0.85184433
    H     -0.21862292     -1.01465962      0.99096611
 
 
 
