#p b3lyp 6-311+g(3df,2p) scf=tight nosymm

30_Benzene-Ethene_1_z_+30

0    1
    C     -4.11337854     -1.14228443      0.03773332
    H     -4.36390978     -0.69941782      0.99096629
    H     -4.41615090     -0.60886578     -0.85184404
    C     -3.44835651     -2.29414893     -0.03773335
    H     -3.13779289     -2.82306708      0.85184433
    H     -3.19009357     -2.73255430     -0.99096611
 
 
 
