#p b3lyp 6-311+g(3df,2p) scf=tight nosymm

31_Uracil-Ethene_1_z_+30

0    1
    C     -3.61760613     -1.65682933     -0.66460857
    H     -3.70001778     -0.72867982     -1.21240175
    H     -3.63174816     -2.57221499     -1.23957896
    C     -3.51163192     -1.67768861      0.66449829
    H     -3.50683554     -0.76654815      1.24611492
    H     -3.43522027     -2.60926839      1.20717983
 
 
 
