#p b3lyp 6-311+g(3df,2p) scf=tight nosymm

32_Uracil-Ethyne_1_z_+30

0    1
    C     -3.61779212     -1.10644084     -0.00658222
    H     -4.09334360     -0.15574983      0.00000000
    C     -3.05330152     -2.17974026      0.00452960
    H     -2.56538064     -3.12284251      0.02445919
 
 
 
