#p b3lyp 6-311+g(3df,2p) scf=tight nosymm

32_Uracil-Ethyne_2_y_-30

0    1
    C     -0.02408383      0.60585994     -0.00596547
    H     -0.07579039      1.66695824     -0.04341876
    C      0.02285642     -0.60588993      0.00830466
    H      0.07525581     -1.66660088      0.01554476
 
 
 
