#p b3lyp 6-311+g(3df,2p) scf=tight nosymm

32_Uracil-Ethyne_1_y_+30

0    1
    C     -3.14365047      0.60585994      1.62543057
    H     -3.08536169      1.66695824      1.59937802
    C     -3.17947889     -0.60588993      1.65894694
    H     -3.21194869     -1.66660088      1.70070609
 
 
 
