#p b3lyp 6-311+g(3df,2p) scf=tight nosymm

32_Uracil-Ethyne_1_y_-30

0    1
    C     -3.45928829      0.60585994     -1.63683131
    H     -3.40758173      1.66695824     -1.59937802
    C     -3.50622854     -0.60588993     -1.65110144
    H     -3.55862793     -1.66660088     -1.65834154
 
 
 
