#p b3lyp 6-311+g(3df,2p) scf=tight nosymm

32_Uracil-Ethyne_1_z_-30

0    1
    C     -3.47770965      2.15582103     -0.00658222
    H     -2.89216282      3.04300620      0.00000000
    C     -4.12496892      1.13030812      0.00452960
    H     -4.69775899      0.23620512      0.02445919
 
 
 
