#p b3lyp 6-311+g(3df,2p) scf=tight nosymm

32_Uracil-Ethyne_2_z_+30

0    1
    C      0.08068997      0.51302426      0.00658222
    H     -0.50485686      1.40020942      0.00000000
    C      0.72794923     -0.51248866     -0.00452960
    H      1.30073930     -1.40659166     -0.02445919
 
 
 
