#p b3lyp 6-311+g(3df,2p) scf=tight nosymm

32_Uracil-Ethyne_2_y_+30

0    1
    C     -0.02192040      0.60585994      0.01736621
    H     -0.08020918      1.66695824      0.04341876
    C      0.01390802     -0.60588993     -0.01615016
    H      0.04637783     -1.66660088     -0.05790932
 
 
 
