#p b3lyp 6-311+g(3df,2p) scf=tight nosymm

32_Uracil-Ethyne_2_z_-30

0    1
    C      0.43836818      0.53635594      0.00658222
    H      0.91391965      1.48704695      0.00000000
    C     -0.12612243     -0.53694348     -0.00452960
    H     -0.61404330     -1.48004574     -0.02445919
 
 
 
