#p b3lyp 6-311+g(3df,2p) scf=tight nosymm

33_Pyridine-Ethene_1_y_+30

0    1
    C     -3.37820319      0.00033813      2.27165289
    H     -2.96772331     -0.91145887      2.68084382
    H     -3.22592194      0.91133369      2.83299884
    C     -4.04461361     -0.00016490      1.11755044
    H     -4.19346803     -0.91236663      0.55806191
    H     -4.45501778      0.91042758      0.70446048
 
 
 
