#p b3lyp 6-311+g(3df,2p) scf=tight nosymm

33_Pyridine-Ethene_1_z_+30

0    1
    C     -3.63418025     -1.69428903      0.66634423
    H     -3.04760670     -2.40848312      1.22595391
    H     -4.21853702     -0.97974050      1.22862471
    C     -3.63399552     -1.69476323     -0.66634302
    H     -3.04726983     -2.40933682     -1.22530151
    H     -4.21822169     -0.98060474     -1.22929151
 
 
 
