#p b3lyp 6-311+g(3df,2p) scf=tight nosymm

36_Neopentane-Neopentane_1_y_+30

0    1
    C     -5.11839829      0.00000851      2.65213478
    C     -4.67942687     -1.43963550      2.39691546
    H     -3.73552061     -1.46907464      1.85071664
    H     -4.54158929     -1.97613273      3.33682114
    H     -5.42606846     -1.97481549      1.80838599
    C     -4.05492097      0.71826102      3.47886152
    H     -4.34654592      1.75130314      3.67388906
    H     -3.90808852      0.22135125      4.43895822
    H     -3.09727767      0.73148378      2.95646852
    C     -6.44053961      0.00016540      3.41485627
    H     -6.77540243      1.01965361      3.61117350
    H     -6.33646083     -0.51186303      4.37248255
    H     -7.21883397     -0.50715611      2.84307742
    C     -5.30090173      0.72120207      1.31910131
    H     -6.05706418      0.22476054      0.70914325
    H     -5.61726707      1.75345372      1.47603787
    H     -4.36853345      0.73701809      0.75288652
 
 
 
