#p b3lyp 6-311+g(3df,2p) scf=tight nosymm

36_Neopentane-Neopentane_2_y_+30

0    1
    C      0.48657430      0.00000851      0.00026080
    C      0.04760289     -1.43963550      0.25548013
    H     -0.89630337     -1.46907464      0.80167894
    H     -0.09023469     -1.97613273     -0.68442556
    H      0.79424448     -1.97481549      0.84400959
    C     -0.57690301      0.71826102     -0.82646594
    H     -0.28527806      1.75130314     -1.02149347
    H     -0.72373547      0.22135125     -1.78656263
    H     -1.53454631      0.73148378     -0.30407293
    C      1.80871562      0.00016540     -0.76246069
    H      2.14357844      1.01965361     -0.95877792
    H      1.70463684     -0.51186303     -1.72008697
    H      2.58700998     -0.50715611     -0.19068184
    C      0.66907774      0.72120207      1.33329427
    H      1.42524020      0.22476054      1.94325234
    H      0.98544309      1.75345372      1.17635771
    H     -0.26329053      0.73701809      1.89950906
 
 
 
