#p b3lyp 6-311+g(3df,2p) scf=tight nosymm

37_Cyclopentane-Neopentane_2_y_+30

0    1
    C      0.64943728     -0.00024696      0.00060843
    C      1.95777496     -0.25364204     -0.74344928
    H      1.92808365      0.18587089     -1.74142792
    H      2.80073850      0.18313837     -0.20618755
    H      2.14246848     -1.32345785     -0.85035832
    C      0.42205652      1.50360790      0.13189293
    H     -0.50838347      1.71234087      0.66188574
    H      1.23750087      1.97288921      0.68426191
    H      0.36379166      1.97488861     -0.85034884
    C      0.72807953     -0.62631776      1.39096542
    H     -0.19177729     -0.45302310      1.95101756
    H      1.55471374     -0.19966304      1.96113251
    H      0.88450640     -1.70410003      1.32397035
    C     -0.50545987     -0.62359568     -0.77966156
    H     -0.36984613     -1.70155638     -0.88041523
    H     -1.45731385     -0.44891771     -0.27643336
    H     -0.57106799     -0.19609167     -1.78133825
 
 
 
