#p b3lyp 6-311+g(3df,2p) scf=tight nosymm

37_Cyclopentane-Neopentane_1_z_+30

0    1
    C     -4.86128353     -2.33235014      0.00000533
    C     -6.03802569     -3.30433797     -0.00979063
    H     -6.66765110     -3.16034655      0.86932988
    H     -6.65599740     -3.15677353     -0.89655471
    H     -5.68793089     -4.33752754     -0.00955145
    C     -5.38582753     -0.89869374      0.00000000
    H     -4.56287041     -0.18253515      0.00623275
    H     -5.99286866     -0.70728972     -0.88608774
    H     -6.00309241     -0.71088369      0.87977875
    C     -4.00518758     -2.56100720     -1.24340027
    H     -3.15943260     -1.87260690     -1.26849124
    H     -4.59160100     -2.40691471     -2.15049656
    H     -3.61262631     -3.57887762     -1.26359427
    C     -4.02130312     -2.56716832      1.25318754
    H     -3.62766070     -3.58462056      1.27263591
    H     -3.17684742     -1.87792085      1.29330613
    H     -4.61958776     -2.41894901      2.15346906
 
 
 
