#p b3lyp 6-311+g(3df,2p) scf=tight nosymm

38_Cyclopentane-Cyclopentane_1_y_+30

0    1
    C     -3.57674230     -0.61749216      2.98513702
    H     -2.71533168     -1.03609552      2.46066121
    H     -3.49189391     -0.89777411      4.03390715
    C     -3.63411877      0.90384861      2.77785711
    H     -2.64166971      1.34643361      2.71099073
    H     -4.13520901      1.37202465      3.62456583
    C     -4.46373322      1.11578682      1.48498474
    H     -3.89444730      1.62800266      0.71126702
    H     -5.33787207      1.73063352      1.69525829
    C     -4.89919728     -0.29059667      1.03489611
    H     -4.17602273     -0.69756230      0.32593341
    H     -5.87319656     -0.29396256      0.54846587
    C     -4.85652855     -1.11836452      2.31872314
    H     -4.86041226     -2.19268514      2.13982458
    H     -5.71831391     -0.87777191      2.94586344
 
 
 
