#p b3lyp 6-311+g(3df,2p) scf=tight nosymm

38_Cyclopentane-Cyclopentane_1_z_+30

0    1
    C     -3.70553335     -2.56417420      1.10357816
    H     -2.62306901     -2.42257465      1.08007410
    H     -3.95588687     -3.03235759      2.05426393
    C     -4.41948125     -1.21967921      0.89538025
    H     -3.86748296     -0.38992971      1.33369680
    H     -5.39602258     -1.24288247      1.37810640
    C     -4.58783103     -1.07215082     -0.63908728
    H     -4.08194491     -0.18862144     -1.02450353
    H     -5.64190964     -0.97075958     -0.89405447
    C     -4.01634324     -2.36615397     -1.24660750
    H     -2.96348966     -2.22821210     -1.49899994
    H     -4.53452929     -2.66921542     -2.15486809
    C     -4.12637118     -3.38550261     -0.11344631
    H     -3.51465830     -4.27284862     -0.27031886
    H     -5.16456622     -3.70709238     -0.00121957
 
 
 
