#p b3lyp 6-311+g(3df,2p) scf=tight nosymm

39_Benzene-Cyclopentane_1_z_-30

0    1
    C     -2.94797759      2.72720242      0.09912133
    H     -2.11232252      2.05730291      0.31043709
    H     -2.56363136      3.74600801      0.06398498
    C     -3.64017637      2.30511475     -1.19963228
    H     -2.93303109      2.01789920     -1.97614653
    H     -4.22804214      3.13967961     -1.58450251
    C     -4.57783145      1.14389473     -0.79274324
    H     -4.20158358      0.18834039     -1.15465180
    H     -5.56989823      1.27895865     -1.22104515
    C     -4.62770523      1.16403208      0.75203302
    H     -3.98981299      0.37517351      1.15210603
    H     -5.63183067      1.00444200      1.14155879
    C     -4.04049272      2.52211928      1.14572558
    H     -3.67122923      2.54437119      2.17032204
    H     -4.79764881      3.30350349      1.04426206
 
 
 
