#p b3lyp 6-311+g(3df,2p) scf=tight nosymm

40_Benzene-Neopentane_1_y_+30

0    1
    C     -4.27062292     -1.48274708      2.12354969
    C     -4.44398907     -2.19872865      0.78642416
    H     -4.74502397     -3.23680702      0.93718519
    H     -5.20878930     -1.70936573      0.18109998
    H     -3.51030470     -2.19089461      0.22250985
    C     -5.59195971     -1.50192114      2.88700124
    H     -5.49228091     -0.99473492      3.84781843
    H     -6.37560049     -0.99835698      2.31893814
    H     -5.91716218     -2.52593721      3.07733270
    C     -3.84312692     -0.03870121      1.87355378
    H     -3.71284050      0.49470191      2.81685439
    H     -4.59602876      0.49143801      1.28756687
    H     -2.89924014     -0.00000000      1.32839913
    C     -3.19753252     -2.19406313      2.94398246
    H     -2.24258937     -2.18596864      2.41684194
    H     -3.05621488     -1.70144649      3.90740709
    H     -3.47643036     -3.23213276      3.13257723
 
 
 
