#p b3lyp 6-311+g(3df,2p) scf=tight nosymm

42_Uracil-Cyclopentane_1_y_+30

0    1
    C     -3.71227153     -1.06991934      2.53632565
    H     -2.65095980     -1.30027135      2.43086789
    H     -4.14748923     -1.83588540      3.17590351
    C     -3.85610789      0.34196236      3.10667640
    H     -3.16579760      0.54525637      3.92429556
    H     -4.87260000      0.49548386      3.47685864
    C     -3.62310462      1.21740135      1.87718236
    H     -2.56005616      1.20658361      1.62670599
    H     -3.91854232      2.25659374      2.01751953
    C     -4.43240825      0.50901303      0.78329720
    H     -4.04732096      0.70011571     -0.21694117
    H     -5.46088251      0.86990968      0.80490544
    C     -4.39096861     -0.99525817      1.15266179
    H     -3.85397659     -1.57478365      0.40375023
    H     -5.40035458     -1.40112496      1.19971216
 
 
 
