#p b3lyp 6-311+g(3df,2p) scf=tight nosymm

43_Uracil-Neopentane_2_y_-30

0    1
    C      0.23867719     -0.00031317      0.00034754
    C      0.15812133      0.60196025      1.40044663
    H      0.62699829     -0.05610625      2.13332039
    H      0.66646111      1.56665055      1.43849576
    H     -0.88054991      0.75268983      1.69817148
    C      1.70113120     -0.20073930     -0.38783920
    H      1.78163398     -0.63212542     -1.38659114
    H      2.23794649      0.74908464     -0.38470376
    H      2.19933683     -0.87288479      0.31214725
    C     -0.42335259      0.94605742     -0.99850954
    H     -0.38229512      0.53249297     -2.00788484
    H      0.08267375      1.91314439     -1.00742454
    H     -1.46922507      1.11681223     -0.73591929
    C     -0.48085725     -1.34697025     -0.01502401
    H     -1.52476169     -1.23670740      0.28333033
    H     -0.44967274     -1.78846898     -1.01299580
    H     -0.00664425     -2.04452147      0.67694869
 
 
 
