#p b3lyp 6-311+g(3df,2p) scf=tight nosymm

45_Ethyne-Pentane_1_z_-30

0    1
    C     -2.15919215      4.01027288     -0.33577462
    H     -1.41569589      3.59036931     -1.01387055
    H     -2.91461681      4.50620218     -0.94524018
    H     -1.66958266      4.76983696      0.27211895
    C     -2.78508220      2.91640888      0.51928639
    H     -3.51069051      3.35487710      1.20830546
    H     -2.01775404      2.44438448      1.13672250
    C     -3.46888793      1.84452316     -0.31773185
    H     -4.26093415      2.30164667     -0.91846876
    H     -2.74490722      1.42614003     -1.02184392
    C     -4.05519098      0.71697844      0.52014525
    H     -4.79745176      1.12663311      1.20914309
    H     -3.26265069      0.28860844      1.13752146
    C     -4.69005997     -0.37232096     -0.33414314
    H     -3.95496550     -0.80671083     -1.01226234
    H     -5.10296659     -1.17568474      0.27435549
    H     -5.49739369      0.03379456     -0.94352027
 
 
 
