#p b3lyp 6-311+g(3df,2p) scf=tight nosymm

46_Peptide-Pentane_1_z_+30

0    1
    C     -4.24523265     -1.90200795      2.47350411
    H     -4.01822157     -0.85561010      2.68027881
    H     -5.32207627     -1.97768775      2.32102366
    H     -3.99151215     -2.47904590      3.36142641
    C     -3.48684160     -2.39205254      1.24666966
    H     -3.73194763     -3.44041389      1.06109978
    H     -2.41080305     -2.35216122      1.42692053
    C     -3.81126925     -1.57973619      0.00000000
    H     -4.89197251     -1.59385190     -0.17375316
    H     -3.54451966     -0.53173137      0.17135845
    C     -3.09304422     -2.07993657     -1.24598630
    H     -3.37903480     -3.11823158     -1.42933035
    H     -2.01780392     -2.08338416     -1.05752137
    C     -3.40960892     -1.23712226     -2.47421311
    H     -3.11289908     -0.19981754     -2.31433015
    H     -2.89293418     -1.60245830     -3.36108950
    H     -4.47908791     -1.24428968     -2.68577752
 
 
 
