#p b3lyp 6-311+g(3df,2p) scf=tight nosymm

47_Benzene-Benzene_TS_1_y_-30

0    1
    C     -3.70104886     -0.39543530     -1.52991930
    H     -2.73403999      0.00000000     -1.25121137
    C     -3.94365440     -1.76536063     -1.44392891
    H     -3.16075934     -2.42686825     -1.09831960
    C     -5.18912262     -2.27931531     -1.80095491
    H     -5.37606801     -3.34258347     -1.73367858
    C     -6.19498240     -1.42241825     -2.24485818
    H     -7.16175976     -1.82043542     -2.52191013
    C     -5.95436232     -0.05233530     -2.33169782
    H     -6.73477049      0.61264559     -2.67616911
    C     -4.70796756      0.45976766     -1.97456820
    H     -4.52122024      1.52317924     -2.04196358
 
 
 
