#p b3lyp 6-311+g(3df,2p) scf=tight nosymm

48_Pyridine-Pyridine_TS_1_y_+30

0    1
    N     -5.48043949     -2.18909968      2.93613143
    C     -4.42514694     -2.73528569      2.31537729
    H     -4.39277110     -3.81790445      2.30374118
    C     -3.41096441     -1.99706690      1.71003750
    H     -2.58247563     -2.49260814      1.22333774
    C     -3.48796839     -0.60809050      1.74592704
    H     -2.71989641     -0.00000000      1.28710026
    C     -4.57622251     -0.02371039      2.38587130
    H     -4.68327052      1.05058054      2.44168803
    C     -5.53806242     -0.85064579      2.96090341
    H     -6.39578404     -0.42287268      3.46555238
 
 
 
