#p b3lyp 6-311+g(3df,2p) scf=tight nosymm

49_Benzene-Pyridine_TS_2_y_-30

0    1
    N      3.09017631      1.62225711      1.84378890
    C      2.15197373      2.36471874      1.23962168
    H      2.28840233      3.43774756      1.29791344
    C      1.05501888      1.83077098      0.56838679
    H      0.33131418      2.48315660      0.10053886
    C      0.91026964      0.44832243      0.51263144
    H      0.07054408      0.00000000      0.00000000
    C      1.87609135     -0.33599957      1.13488786
    H      1.81266253     -1.41509757      1.12222735
    C      2.93746384      0.29237654      1.78165497
    H      3.70277980     -0.29517142      2.27396012
 
 
 
