#p b3lyp 6-311+g(3df,2p) scf=tight nosymm

49_Benzene-Pyridine_TS_1_y_-30

0    1
    N     -5.72716867      1.62225711     -3.08255350
    C     -4.78896610      2.36471874     -2.47838629
    H     -4.92539470      3.43774756     -2.53667805
    C     -3.69201125      1.83077098     -1.80715140
    H     -2.96830655      2.48315660     -1.33930347
    C     -3.54726200      0.44832243     -1.75139604
    H     -2.70753645     -0.00000000     -1.23876461
    C     -4.51308371     -0.33599957     -2.37365247
    H     -4.44965489     -1.41509757     -2.36099196
    C     -5.57445621      0.29237654     -3.02041958
    H     -6.33977217     -0.29517142     -3.51272473
 
 
 
