#p b3lyp 6-311+g(3df,2p) scf=tight nosymm

49_Benzene-Pyridine_TS_1_y_+30

0    1
    N     -5.81785988      1.62225711      2.93194838
    C     -4.82553444      2.36471874      2.42152472
    H     -4.94423088      3.43774756      2.51052947
    C     -3.69575055      1.83077098      1.80715140
    H     -2.92873000      2.48315660      1.41432870
    C     -3.57509037      0.44832243      1.70967255
    H     -2.71127575     -0.00000000      1.23876461
    C     -4.59689109     -0.33599957      2.23497048
    H     -4.55421236     -1.41509757      2.18636976
    C     -5.68769409      0.29237654      2.83076246
    H     -6.49670084     -0.29517142      3.24739295
 
 
 
