#p b3lyp 6-311+g(3df,2p) scf=tight nosymm

50_Benzene-Ethyne_CH-pi_1_z_-30

0    1
    C     -3.59452628      1.75387030     -0.00586205
    H     -2.67533472      1.21756214      0.00000000
    C     -4.64171873      2.36509048     -0.01297945
    H     -5.55831647      2.90011816     -0.01911582
 
 
 
