#p b3lyp 6-311+g(3df,2p) scf=tight nosymm

50_Benzene-Ethyne_CH-pi_2_y_+30

0    1
    C      0.98601761      0.00486071     -0.52702198
    H      0.06146467      0.00000000      0.00000000
    C      2.03963675      0.01059668     -1.12711081
    H      2.96182702      0.01564538     -1.65245193
 
 
 
