#p b3lyp 6-311+g(3df,2p) scf=tight nosymm

50_Benzene-Ethyne_CH-pi_2_z_-30

0    1
    C      0.98594023     -0.52788916      0.00586205
    H      0.06188796      0.00000000      0.00000000
    C      2.03886866     -1.12917434      0.01297945
    H      2.96051509     -1.65545742      0.01911582
 
 
 
