#p b3lyp 6-311+g(3df,2p) scf=tight nosymm

50_Benzene-Ethyne_CH-pi_1_y_-30

0    1
    C     -3.58942131      0.00486071     -1.75473748
    H     -2.67073041      0.00000000     -1.21756214
    C     -4.63592304      0.01059668     -2.36715401
    H     -5.55197694      0.01564538     -2.90312365
 
 
 
