#p b3lyp 6-311+g(3df,2p) scf=tight nosymm

51_Ethyne-Ethyne_TS_2_z_+30

0    1
    C      1.01235721      0.53206579      0.00385915
    H      0.09114011      0.00000000      0.00000000
    C      2.06190544      1.13833130      0.00840194
    H      2.98110711      1.66909382      0.01253572
 
 
 
