#p b3lyp 6-311+g(3df,2p) scf=tight nosymm

52_Benzene-AcOH_OH-pi_1_y_+30

0    1
    C     -3.76569082      0.00000000      1.93546777
    O     -3.24292359     -1.06912786      1.71624596
    O     -3.22711290      1.17910099      1.55828777
    H     -2.38999873      0.96689060      1.10949046
    C     -5.06956102      0.20566963      2.64836649
    H     -5.49023803     -0.75517816      2.91927727
    H     -4.90593629      0.80782596      3.53915605
    H     -5.75675439      0.75088307      2.00583718
 
 
 
