#p b3lyp 6-311+g(3df,2p) scf=tight nosymm

53_Benzene-AcNH2_NH-pi_1_z_-30

0    1
    C     -3.82177597      0.03357160     -0.04517438
    O     -3.22711637     -1.03387767     -0.00943454
    N     -3.18077226      1.23286804     -0.00903520
    H     -2.17387212      1.24135327      0.00000000
    H     -3.68089161      2.09667079     -0.08372823
    C     -5.32831681      0.10833281     -0.14312882
    H     -5.62634731     -0.22710141     -1.13432064
    H     -5.72328500      1.10681898      0.02680118
    H     -5.75531114     -0.57950060      0.58075742
 
 
 
