#p b3lyp 6-311+g(3df,2p) scf=tight nosymm

54_Benzene-Water_OH-pi_1_z_-30

0    1
    O     -3.35488318      1.68308863      0.00000000
    H     -2.82570659      2.48285813      0.00000000
    H     -2.69050557      0.98739853      0.00000000
 
 
 
