#p b3lyp 6-311+g(3df,2p) scf=tight nosymm

54_Benzene-Water_OH-pi_1_z_+30

0    1
    O     -3.53915758     -1.74965513      0.00000000
    H     -3.96718998     -0.89149000      0.00000000
    H     -2.60448347     -1.52213229      0.00000000
 
 
 
