#p b3lyp 6-311+g(3df,2p) scf=tight nosymm

54_Benzene-Water_OH-pi_1_y_-30

0    1
    O     -3.41543212     -0.03843219     -1.71637188
    H     -3.36486003      0.91877682     -1.68717407
    H     -2.61590626     -0.30872868     -1.25476541
 
 
 
