#p b3lyp 6-311+g(3df,2p) scf=tight nosymm

54_Benzene-Water_OH-pi_2_y_+30

0    1
    O      0.02716039     -0.03843219     -0.02746009
    H     -0.02341171      0.91877682      0.00173772
    H     -0.77236548     -0.30872868      0.43414638
 
 
 
