#p b3lyp 6-311+g(3df,2p) scf=tight nosymm

54_Benzene-Water_OH-pi_2_z_+30

0    1
    O      0.03910344     -0.00582316      0.00000000
    H     -0.49007315      0.79394634      0.00000000
    H     -0.62527417     -0.70151326     -0.00000000
 
 
 
