#p b3lyp 6-311+g(3df,2p) scf=tight nosymm

54_Benzene-Water_OH-pi_2_z_-30

0    1
    O      0.02507038     -0.06074334      0.00000000
    H      0.45310279      0.79742178      0.00000000
    H     -0.90960373      0.16677950     -0.00000000
 
 
 
