#p b3lyp 6-311+g(3df,2p) scf=tight nosymm

55_Benzene-MeOH_OH-pi_1_z_-30

0    1
    O     -3.05760703      2.21528737      0.01437748
    H     -2.21974683      1.74188837      0.01630572
    C     -4.08519480      1.24319505     -0.01483682
    H     -5.03097309      1.77827175     -0.01557717
    H     -4.04250346      0.62057520     -0.91147556
    H     -4.06224022      0.58839706      0.85932490
 
 
 
