#p b3lyp 6-311+g(3df,2p) scf=tight nosymm

55_Benzene-MeOH_OH-pi_1_y_+30

0    1
    O     -3.25598157      0.66987623      1.64760879
    H     -2.42163452      0.67883077      1.16812484
    C     -3.62035123     -0.68577430      1.82424395
    H     -4.56175012     -0.69527342      2.36690597
    H     -3.76704979     -1.20363323      0.87359117
    H     -2.88251858     -1.24136869      2.40765108
 
 
 
