#p b3lyp 6-311+g(3df,2p) scf=tight nosymm

56_Benzene-MeNH2_NH-pi_1_z_-30

0    1
    N     -3.89411225      1.12279648      0.21067572
    H     -3.03803398      0.58300445      0.16630925
    H     -4.14355856      1.15204449      1.19087030
    C     -3.62456504      2.48066082     -0.25763678
    H     -4.53567090      3.07254912     -0.19232134
    H     -2.83478772      3.01090461      0.28438967
    H     -3.33813567      2.44410449     -1.30686043
 
 
 
