#p b3lyp 6-311+g(3df,2p) scf=tight nosymm

56_Benzene-MeNH2_NH-pi_2_y_+30

0    1
    N     -0.19214756     -0.66319376     -0.08079931
    H     -1.04575983     -0.70262825      0.46326395
    H     -0.48249535     -0.76258740     -1.04499814
    C      0.42782079      0.64752485      0.10202249
    H      1.33478762      0.70456222     -0.49703483
    H     -0.20592313      1.50161810     -0.15796352
    H      0.72178124      0.75908083      1.14384346
 
 
 
