#p b3lyp 6-311+g(3df,2p) scf=tight nosymm

58_Pyridine-Pyridine_CH-N_2_y_+30

0    1
    N      0.45903122     -0.91602901     -0.24446467
    C      1.47976823     -1.54079416     -0.84770522
    H      1.44762214     -2.62344317     -0.83538267
    C      2.53693838     -0.87774157     -1.46461544
    H      3.33029014     -1.44187643     -1.93405059
    C      2.54458729      0.51318852     -1.46064559
    H      3.34825870      1.06421337     -1.92934257
    C      1.49214790      1.17605583     -0.83851031
    H      1.45088910      2.25554299     -0.80775169
    C      0.47760030      0.42659679     -0.24726536
    H     -0.35538699      0.91602901      0.24446467
 
 
 
