#p b3lyp 6-311+g(3df,2p) scf=tight nosymm

58_Pyridine-Pyridine_CH-N_1_y_-30

0    1
    N     -2.63465807     -0.91602901     -1.47031661
    C     -3.66744822     -1.54079416     -2.05268052
    H     -3.64070353     -2.62344317     -2.03100246
    C     -4.73029321     -0.87774157     -2.65976162
    H     -5.53351186     -1.44187643     -3.11210682
    C     -4.73067968      0.51318852     -2.66837069
    H     -5.53841888      1.06421337     -3.13002206
    C     -3.66567502      1.17605583     -2.06799908
    H     -3.61840788      2.25554299     -2.04764721
    C     -2.64636808      0.42659679     -1.48499757
    H     -1.80402374      0.91602901     -1.00947442
 
 
 
