#p b3lyp 6-311+g(3df,2p) scf=tight nosymm

59_Ethyne-Water_CH-O_2_y_+30

0    1
    O      0.00240055      0.00000000      0.00000000
    H      0.50245022      0.76600951     -0.28870381
    H      0.62568986     -0.72502191     -0.07720427
 
 
 
