#p b3lyp 6-311+g(3df,2p) scf=tight nosymm

59_Ethyne-Water_CH-O_1_z_-30

0    1
    O     -2.08292272      1.11610625      0.00000000
    H     -2.19996763      2.06819375      0.00000000
    H     -2.94633108      0.77741211     -0.24478380
 
 
 
