#p b3lyp 6-311+g(3df,2p) scf=tight nosymm

59_Ethyne-Water_CH-O_2_z_+30

0    1
    O      0.02935847      0.00000000      0.00000000
    H      0.14640338      0.95208750      0.00000000
    H      0.89276683     -0.33869414      0.24478380
 
 
 
