#p b3lyp 6-311+g(3df,2p) scf=tight nosymm

59_Ethyne-Water_CH-O_2_z_-30

0    1
    O      0.02483576      0.00000000      0.00000000
    H      0.90789018      0.37467989      0.00000000
    H      0.16322221     -0.91708064      0.24478380
 
 
 
