#p b3lyp 6-311+g(3df,2p) scf=tight nosymm

59_Ethyne-Water_CH-O_1_y_-30

0    1
    O     -2.08198085      0.00000000     -1.11610625
    H     -2.58203052      0.76600951     -1.40481006
    H     -2.46048636     -0.72502191     -1.61728849
 
 
 
