#p b3lyp 6-311+g(3df,2p) scf=tight nosymm

59_Ethyne-Water_CH-O_1_z_+30

0    1
    O     -2.08016470     -1.11610625      0.00000000
    H     -2.96321912     -0.74142636      0.00000000
    H     -2.21855115     -2.03318689     -0.24478380
 
 
 
