#p b3lyp 6-311+g(3df,2p) scf=tight nosymm

60_Ethyne-AcOH_OH-pi_2_y_-30

0    1
    C      1.25402539     -1.31639265      0.67250887
    O      0.56663404     -2.23061038      0.27399694
    O      0.93745137     -0.01784138      0.48828205
    H      0.09531587      0.00000000      0.00000000
    C      2.54456798     -1.45953508      1.42136249
    H      2.77109150     -2.51015681      1.55650993
    H      3.34292047     -0.97041743      0.86824120
    H      2.46301185     -0.96456589      2.38615020
 
 
 
