#p b3lyp 6-311+g(3df,2p) scf=tight nosymm

61_Pentane-AcOH_1_y_-30

0    1
    C     -4.00024084      0.10693490     -1.88994031
    O     -4.13464662      1.25706157     -1.54318385
    O     -4.70329930     -0.91034013     -1.33454730
    H     -5.26511733     -0.49721047     -0.66202557
    C     -3.06685495     -0.39430436     -2.94826044
    H     -2.54209256      0.44228191     -3.39394003
    H     -2.35593154     -1.08758245     -2.50398075
    H     -3.62744961     -0.93680578     -3.70583132
 
 
 
