#p b3lyp 6-311+g(3df,2p) scf=tight nosymm

61_Pentane-AcOH_2_y_+30

0    1
    C      0.24386229      0.10693490     -0.00893754
    O      0.01076527      1.25706157     -0.29871459
    O      0.11440707     -0.91034013     -0.89550053
    H     -0.18710482     -0.49721047     -1.71831008
    C      0.69370146     -0.39430436      1.32855842
    H      0.81729011      0.44228191      2.00585578
    H     -0.04651774     -1.08758245      1.72209630
    H      1.63007442     -0.93680578      1.22185465
 
 
 
