#p b3lyp 6-311+g(3df,2p) scf=tight nosymm

61_Pentane-AcOH_2_z_+30

0    1
    C      0.35655579      0.08871088     -0.01482059
    O     -0.26785316      1.05626008     -0.38232338
    O      1.15199493     -0.62669016     -0.84733427
    H      1.07558317     -0.19376546     -1.71066418
    C      0.36540206     -0.48496297      1.36840448
    H     -0.25347794      0.12373310      2.01675552
    H     -0.01353019     -1.50426820      1.33910868
    H      1.38513658     -0.52264565      1.74418278
 
 
 
