#p b3lyp 6-311+g(3df,2p) scf=tight nosymm

62_Pentane-AcNH2_2_y_-30

0    1
    C      0.38037485     -0.09010361      0.00723466
    O      0.17035607     -1.28760058     -0.10316370
    N     -0.11188815      0.64423546      1.04504643
    H     -0.74547588      0.19346427      1.68117735
    H     -0.02695530      1.64165916      1.06870395
    C      1.19655339      0.68433842     -1.00010181
    H      1.50466687      1.66342676     -0.64175792
    H      0.60039392      0.80842069     -1.90263797
    H      2.07297101      0.09807522     -1.25922551
 
 
 
