#p b3lyp 6-311+g(3df,2p) scf=tight nosymm

62_Pentane-AcNH2_1_y_+30

0    1
    C     -4.30860871     -0.09010361      1.79686584
    O     -4.10799153     -1.28760058      1.67018342
    N     -4.96124857      0.64423546      0.85164769
    H     -5.19536024      0.19346427     -0.01512084
    H     -5.02420300      1.64165916      0.91337293
    C     -3.84431900      0.68433842      3.00736542
    H     -4.30871066      1.66342676      3.09502758
    H     -2.76462003      0.80842069      2.94234425
    H     -4.05812011      0.09807522      3.89592720
 
 
 
