#p b3lyp 6-311+g(3df,2p) scf=tight nosymm

62_Pentane-AcNH2_1_y_-30

0    1
    C     -4.20337400     -0.09010361     -1.82330858
    O     -3.99335522     -1.28760058     -1.71291022
    N     -3.71111100      0.64423546     -2.86112036
    H     -3.07752327      0.19346427     -3.49725128
    H     -3.79604385      1.64165916     -2.88477788
    C     -5.01955254      0.68433842     -0.81597211
    H     -5.32766602      1.66342676     -1.17431601
    H     -4.42339307      0.80842069      0.08656404
    H     -5.89597016      0.09807522     -0.55684841
 
 
 
