#p b3lyp 6-311+g(3df,2p) scf=tight nosymm

63_Benzene-AcOH_2_y_+30

0    1
    C      0.44485433      1.39183605      0.45781260
    O      1.00154756      1.70666572      1.48392769
    O      0.00049690      2.31106205     -0.43698898
    H      0.23375976      3.16892774     -0.05271291
    C      0.14472632      0.00000000      0.00000000
    H      0.60410920     -0.70975592      0.67742796
    H     -0.93477494     -0.14438912     -0.00663203
    H      0.51093239     -0.14427815     -1.01358481
 
 
 
