#p b3lyp 6-311+g(3df,2p) scf=tight nosymm

63_Benzene-AcOH_2_z_-30

0    1
    C      0.76210023      1.18985929      0.54654135
    O      0.89271412      1.47798331      1.71352970
    O      1.27590561      1.95464437     -0.45055827
    H      1.71338918      2.69264108     -0.00113400
    C      0.03932487      0.00000000      0.00000000
    H     -0.26435084     -0.64422830      0.81636126
    H     -0.83962389      0.34073510     -0.54549414
    H      0.68073545     -0.53691662     -0.69468716
 
 
 
