#p b3lyp 6-311+g(3df,2p) scf=tight nosymm

63_Benzene-AcOH_1_y_-30

0    1
    C     -3.43898277      1.39183605     -2.22733839
    O     -2.82868765      1.70666572     -3.22250641
    O     -3.99172496      2.31106205     -1.39511278
    H     -3.77556355      3.16892774     -1.78926238
    C     -3.68539611      0.00000000     -1.73851361
    H     -3.32841773     -0.70975592     -2.47506483
    H     -3.15138899     -0.14438912     -0.80032208
    H     -4.74628934     -0.14427815     -1.54886496
 
 
 
