#p b3lyp 6-311+g(3df,2p) scf=tight nosymm

64_Peptide-Ethene_2_y_-30

0    1
    C      0.58256743      0.44269701     -0.47122624
    H      1.61219657      0.66300178     -0.71573973
    H     -0.18457263      0.97355894     -1.01774850
    C      0.26223205     -0.44360219      0.47154980
    H      1.02799182     -0.97162163      1.02242854
    H     -0.77141916     -0.65415283      0.70720409
 
 
 
