#p b3lyp 6-311+g(3df,2p) scf=tight nosymm

65_Pyridine-Ethyne_2_z_-30

0    1
    C      2.07284954     -1.14717307     -0.06156253
    H      2.98996620     -1.68046834     -0.09101013
    C      1.02420052     -0.53751350     -0.02801087
    H      0.09822775      0.00000000     -0.00000000
 
 
 
