#p b3lyp 6-311+g(3df,2p) scf=tight nosymm

65_Pyridine-Ethyne_2_y_+30

0    1
    C      2.06054340     -0.00617013     -1.19514430
    H      2.96458072     -0.00945905     -1.75109365
    C      1.02684213     -0.00251396     -0.55959448
    H      0.11361781     -0.00000000      0.00000000
 
 
 
