$molecule
1    1
    C      0.60940850      0.00000000      0.22268657
    H      1.68866124      0.00000000      0.23355210
    C     -0.60940850      0.00000000      0.22268657
    H     -1.68866124      0.00000000      0.23355210
    H      0.00000000      0.00000000     -0.91247733
$end
   
$rem
mem_static = 200
mem_total  = 7500
exchange = b3lyp
basis = G3Large
max_scf_cycles = 50
scf_convergence = 7
symmetry = false
xc_grid = 000075000302
$end
