$molecule
1    1
    O      0.00000000      0.00000000      0.19666393
    H     -0.47206764      0.81764513     -0.06555464
    H     -0.47206764     -0.81764513     -0.06555464
    H      0.94413528      0.00000000     -0.06555464
$end
   
$rem
mem_static = 200
mem_total  = 7500
exchange = b3lyp
basis = G3Large
max_scf_cycles = 50
scf_convergence = 7
symmetry = false
xc_grid = 000075000302
$end
