$molecule
0    1
    S      0.00000000      0.00000000     -0.61815041
    H     -0.97553230      0.00000000      0.30907521
    H      0.97553230      0.00000000      0.30907521
$end
   
$rem
mem_static = 200
mem_total  = 7500
exchange = b3lyp
basis = G3Large
max_scf_cycles = 50
scf_convergence = 7
symmetry = false
xc_grid = 000075000302
$end
