$molecule
1    1
    S      0.00000000      0.00000000      0.53882996
    H     -0.57824060      1.00154209     -0.17960999
    H     -0.57824060     -1.00154209     -0.17960999
    H      1.15648119      0.00000000     -0.17960999
$end
   
$rem
mem_static = 200
mem_total  = 7500
exchange = b3lyp
basis = G3Large
max_scf_cycles = 50
scf_convergence = 7
symmetry = false
xc_grid = 000075000302
$end
