#p b3lyp 6-311+g(3df,2p) scf=tight nosymm

nh3

0    1
    N      0.00000000      0.00000000      0.28123661
    H     -0.47083977      0.81551840     -0.09374554
    H     -0.47083977     -0.81551840     -0.09374554
    H      0.94167954      0.00000000     -0.09374554
 
 
 
