$molecule
0    1
    N      0.00000000      0.00000000      0.28123661
    H     -0.47083977      0.81551840     -0.09374554
    H     -0.47083977     -0.81551840     -0.09374554
    H      0.94167954      0.00000000     -0.09374554
$end
   
$rem
mem_static = 200
mem_total  = 7500
exchange = b3lyp
basis = G3Large
max_scf_cycles = 50
scf_convergence = 7
symmetry = false
xc_grid = 000075000302
$end
