$molecule
1    1
    C      0.00000000     -0.68853297     -0.15409298
    C      0.00000000      0.68853297     -0.15409298
    H     -0.93383912     -1.24463399     -0.16583998
    H      0.93383912     -1.24463399     -0.16583998
    H      0.00000000      0.00000000      0.97154587
    H     -0.93383912      1.24463399     -0.16583998
    H      0.93383912      1.24463399     -0.16583998
$end
   
$rem
mem_static = 200
mem_total  = 7500
exchange = b3lyp
basis = G3Large
max_scf_cycles = 50
scf_convergence = 7
symmetry = false
xc_grid = 000075000302
$end
