$molecule
0    1
    C      0.61002014     -0.39591550      0.00000000
    C      1.84275922      0.11826732      0.00000000
    C     -0.61002014      0.39591550      0.00000000
    C     -1.84275922     -0.11826732      0.00000000
    H      0.48339201     -1.47609367      0.00000000
    H      2.01035239      1.19008958      0.00000000
    H      2.72180759     -0.51363111      0.00000000
    H     -0.48339201      1.47609367      0.00000000
    H     -2.01035239     -1.19008958      0.00000000
    H     -2.72180759      0.51363111      0.00000000
$end
   
$rem
mem_static = 200
mem_total  = 7500
exchange = b3lyp
basis = G3Large
max_scf_cycles = 50
scf_convergence = 7
symmetry = false
xc_grid = 000075000302
$end
