$molecule
1    1
    C      0.78858714     -0.45488532      0.00000000
    C      2.02761594      0.11709563      0.00000000
    C     -0.34693118      0.35955142      0.00000000
    C     -1.71928636     -0.11050524      0.00000000
    H      0.67695580     -1.53353311      0.00000000
    H      2.15580904      1.19528675      0.00000000
    H      2.92981213     -0.48539449      0.00000000
    H     -0.19138842      1.43805996      0.00000000
    H     -1.82763022     -1.19218589      0.00000000
    H     -2.24677193      0.33325514      0.86041402
    H     -2.24677193      0.33325514     -0.86041402
$end
   
$rem
mem_static = 200
mem_total  = 7500
exchange = b3lyp
basis = G3Large
max_scf_cycles = 50
scf_convergence = 7
symmetry = false
xc_grid = 000075000302
$end
