$molecule
0    1
    C     -4.29773116     -0.20467062      0.00000000
    C     -3.10480487      0.40408640      0.00000000
    C     -1.83334440     -0.28188697      0.00000000
    C     -0.63409636      0.33897210      0.00000000
    C      0.63409636     -0.33897210      0.00000000
    C      1.83334440      0.28188697      0.00000000
    C      3.10480487     -0.40408640      0.00000000
    C      4.29773116      0.20467062      0.00000000
    H     -4.38303207     -1.28599528      0.00000000
    H     -5.22175544      0.35895793      0.00000000
    H     -3.06734165      1.49112066      0.00000000
    H     -1.86326598     -1.36955583      0.00000000
    H     -0.60882788      1.42691665      0.00000000
    H      0.60882788     -1.42691665      0.00000000
    H      1.86326598      1.36955583      0.00000000
    H      3.06734165     -1.49112066      0.00000000
    H      4.38303207      1.28599528      0.00000000
    H      5.22175544     -0.35895793      0.00000000
$end
   
$rem
mem_static = 200
mem_total  = 7500
exchange = b3lyp
basis = G3Large
max_scf_cycles = 50
scf_convergence = 7
symmetry = false
xc_grid = 000075000302
$end
