#p b3lyp 6-311+g(3df,2p) scf=tight nosymm

ph3

0    1
    P      0.00000000      0.00000000      0.57564968
    H     -0.59820484      1.03612118     -0.19188323
    H     -0.59820484     -1.03612118     -0.19188323
    H      1.19640969      0.00000000     -0.19188323
 
 
 
