$molecule
1    1
   Si      0.54768319      0.09688728      0.00000000
    H     -1.20013540     -0.62143118      0.00000000
    H      0.35537611      1.55187690      0.00000000
    H      0.81651483     -0.58598953      1.26831235
    H      0.81651483     -0.58598953     -1.26831235
    H     -1.33595354      0.14464606      0.00000000
$end
   
$rem
mem_static = 200
mem_total  = 7500
exchange = b3lyp
basis = G3Large
max_scf_cycles = 50
scf_convergence = 7
symmetry = false
xc_grid = 000075000302
$end
