#p b3lyp 6-311+g(3df,2p) scf=tight nosymm

sih4p

1    1
   Si      0.54768319      0.09688728      0.00000000
    H     -1.20013540     -0.62143118      0.00000000
    H      0.35537611      1.55187690      0.00000000
    H      0.81651483     -0.58598953      1.26831235
    H      0.81651483     -0.58598953     -1.26831235
    H     -1.33595354      0.14464606      0.00000000
 
 
 
