$molecule
0 3
C        0.000290   -1.142289    0.000000
H       -1.055957   -1.384735    0.000000
H        0.520167   -1.407389    0.912447
H        0.520167   -1.407389   -0.912447
H        0.011560    0.160099    0.000000
O        0.000290    1.361643    0.000000
$end
   
$rem
mem_static = 200
mem_total  = 7500
exchange = b3lyp
basis = 6-311+g(3df,2p)
scf_convergence = 7
symmetry = false
xc_grid = 000075000302
$end
