$molecule
0 3
H         .000000     .000000    -.860287
O         .000000     .000000     .329024
H         .000000     .000000   -1.771905
$end
   
$rem
mem_static = 200
mem_total  = 7500
exchange = b3lyp
basis = 6-311+g(3df,2p)
scf_convergence = 7
symmetry = false
xc_grid = 000075000302
$end
