$molecule
0 3
Cl        .018820    -.817301     .000000
H        -.470488     .569480     .000000
O         .018820    1.665579     .000000
$end
   
$rem
mem_static = 200
mem_total  = 7500
exchange = b3lyp
basis = 6-311+g(3df,2p)
scf_convergence = 7
symmetry = false
xc_grid = 000075000302
$end
