$molecule
0 3
C       -1.199577    -.011126    -.000030
N        1.400715     .129862     .000015
H       -1.426660    -.512932     .933057
H       -1.419907    -.591382    -.888143
H       -1.520237    1.022806    -.045783
H         .188926     .126896     .001001
H        1.570338    -.887667    -.000053
$end
   
$rem
mem_static = 200
mem_total  = 7500
exchange = b3lyp
basis = 6-311+g(3df,2p)
scf_convergence = 7
symmetry = false
xc_grid = 000075000302
$end
