$molecule
0 3
C       -1.394984   -0.449661    0.000703
C       -0.435746    0.714063    0.002027
N        1.927570   -0.378352    0.003036
H       -1.200087   -1.120951   -0.835687
H       -1.322095   -1.027884    0.921773
H       -2.428713   -0.105352   -0.089334
H       -0.417688    1.308482   -0.907201
H       -0.441127    1.329095    0.897467
H        0.828501    0.180593   -0.028561
H        2.472592    0.498073    0.003910
$end
   
$rem
mem_static = 200
mem_total  = 7500
exchange = b3lyp
basis = 6-311+g(3df,2p)
scf_convergence = 7
symmetry = false
xc_grid = 000075000302
$end
