$molecule
0 2
C       -1.485700   -0.448156   -0.000019
C       -0.505042    0.701740    0.000029
N        1.865161   -0.340167   -0.000057
H       -1.354193   -1.076505   -0.880503
H       -1.354159   -1.076611    0.880385
H       -2.517025   -0.086173    0.000025
H       -0.522224    1.316118   -0.897218
H       -0.522205    1.316029    0.897338
H        0.665047    0.147961   -0.000034
H        2.246644    0.159717   -0.804806
H        2.246439    0.159133    0.805151
$end
   
$rem
mem_static = 200
mem_total  = 7500
exchange = b3lyp
basis = 6-311+g(3df,2p)
scf_convergence = 7
symmetry = false
xc_grid = 000075000302
$end
