$molecule
0 2
C       -1.260750   -0.000006    0.012291
N        1.313255   -0.000005   -0.136782
H       -1.583987    0.908538   -0.484744
H       -1.463672   -0.004573    1.077302
H       -1.584748   -0.903880   -0.492700
H        0.043108   -0.000064   -0.151692
H        1.480459    0.805577    0.467751
H        1.480557   -0.805524    0.467808
$end
   
$rem
mem_static = 200
mem_total  = 7500
exchange = b3lyp
basis = 6-311+g(3df,2p)
scf_convergence = 7
symmetry = false
xc_grid = 000075000302
$end
