$molecule
0 1
C       -1.299623   -0.904853   -0.020155
C       -1.205947    0.505817   -0.013414
C        0.000000    1.183361    0.153301
C        1.205948    0.505814   -0.013422
C        1.299626   -0.904851   -0.020147
H        2.168797   -1.327549   -0.515697
H        1.032041   -1.454385    0.873166
H        2.037130    1.085583   -0.398504
H        0.000001    2.262913    0.085905
H       -2.037133    1.085587   -0.398481
H       -2.168796   -1.327540   -0.515716
H       -0.000011   -1.181942   -0.520808
H       -1.032059   -1.454394    0.873158
$end
   
$rem
mem_static = 200
mem_total  = 7500
exchange = b3lyp
basis = 6-311+g(3df,2p)
scf_convergence = 7
symmetry = false
xc_grid = 000075000302
$end
