$molecule
0 2
C       -1.211487     .007968     .000407
O        1.293965    -.108694     .000133
H         .009476    -.118020     .002799
H       -1.525529    -.233250    1.010070
H       -1.430665    1.033233    -.278082
H       -1.552710    -.710114    -.737702
H        1.416636     .849894    -.000591
$end
   
$rem
mem_static = 200
mem_total  = 7500
exchange = b3lyp
basis = 6-311+g(3df,2p)
scf_convergence = 7
symmetry = false
xc_grid = 000075000302
$end
