$molecule
0 2
N       -1.150816    -.043932    -.102559
O        1.179186    -.092696    -.010290
H       -1.303185    -.547638     .766571
H       -1.338913     .935808     .091854
H        -.030687    -.153834    -.353184
H        1.295009     .814753     .294991
$end
   
$rem
mem_static = 200
mem_total  = 7500
exchange = b3lyp
basis = 6-311+g(3df,2p)
scf_convergence = 7
symmetry = false
xc_grid = 000075000302
$end
