$molecule
0 2
C        1.458334    -.446365     .025478
C         .469423     .697422    -.027493
O       -1.853037    -.314659    -.053055
H        1.301764   -1.061079     .910737
H        1.366585   -1.086189    -.851118
H        2.482245    -.066879     .057150
H         .471069    1.325443     .861037
H         .533524    1.303495    -.928560
H        -.630232     .207816    -.078465
H       -2.267207     .388321     .465751
$end
   
$rem
mem_static = 200
mem_total  = 7500
exchange = b3lyp
basis = 6-311+g(3df,2p)
scf_convergence = 7
symmetry = false
xc_grid = 000075000302
$end
