%nproc = 8
%mem   = 6000MB
#p b3lyp/6-31G(2df,p), scf=tight

Opt at the level of B3LYP/6-31G(2df,p), Etot = -2.90618440E+02, ZPE = 0.011654, TE = 0.015465

0        1
Si      0.00000000        0.00000000        0.13343914
H      0.00000000        1.09116283       -0.93275557
H      0.00000000       -1.09116283       -0.93275557

