%nproc = 8
%mem   = 6000MB
#p b3lyp/6-31G(2df,p), scf=tight

Opt at the level of B3LYP/6-31G(2df,p), Etot = -3.42511252E+02, ZPE = 0.013356, TE = 0.017155

0        2
P      0.00000000        0.00000000        0.11711228
H      0.00000000        1.02256422       -0.87788664
H      0.00000000       -1.02256422       -0.87788664

