%nproc = 8
%mem   = 6000MB
#p b3lyp/6-31G(2df,p), scf=tight

Opt at the level of B3LYP/6-31G(2df,p), Etot = -2.71792262E+02, ZPE = 0.145907, TE = 0.152331

0        1
O     -0.66042862       -1.26401729        0.00000000
C      0.62566815        1.32793494        0.00000000
C     -0.02133424       -0.79694049        1.17685517
C     -0.02133424       -0.79694049       -1.17685517
C     -0.02287894        0.73159975        1.25813748
C     -0.02287894        0.73159975       -1.25813748
H      1.01833153       -1.16970597        1.21251978
H     -0.56481372       -1.24210685        2.01608896
H      1.01833153       -1.16970597       -1.21251978
H     -0.56481372       -1.24210685       -2.01608896
H     -1.06049557        1.07838907        1.34120722
H      0.50266529        1.05489502        2.16442631
H     -1.06049557        1.07838907       -1.34120722
H      0.50266529        1.05489502       -2.16442631
H      0.54548154        2.42028005        0.00000000
H      1.69886924        1.09093325        0.00000000

