%nproc = 8
%mem   = 6000MB
#p b3lyp/6-31G(2df,p), scf=tight

Opt at the level of B3LYP/6-31G(2df,p), Etot = -1.94362025E+02, ZPE = 0.107875, TE = 0.114372

0        1
O      0.01054157       -0.70843680        0.00000000
C      0.00302059        0.70348802        0.00000000
C      1.30856301       -1.24740570        0.00000000
C     -1.43945808        1.18048466        0.00000000
H      0.53838747        1.08718639        0.88606875
H      0.53838747        1.08718639       -0.88606875
H      1.21328633       -2.33622784        0.00000000
H      1.88076548       -0.94179714       -0.89123957
H      1.88076548       -0.94179714        0.89123957
H     -1.96442662        0.81215224       -0.88598989
H     -1.96442662        0.81215224        0.88598989
H     -1.48112208        2.27380866        0.00000000

