%nproc = 8
%mem   = 6000MB
#p b3lyp/6-31G(2df,p), scf=tight

Opt at the level of B3LYP/6-31G(2df,p), Etot = -1.33932657E+02, ZPE = 0.07016, TE = 0.074343

0        1
C     -0.03777555       -0.39571236        0.74160061
N     -0.04107842        0.87494480       -0.00000000
C     -0.03777555       -0.39571236       -0.74160061
H      0.89287973        1.27573141        0.00000000
H     -0.95415349       -0.60854827        1.28478071
H     -0.95415349       -0.60854826       -1.28478071
H      0.87090789       -0.70456598        1.25191902
H      0.87090789       -0.70456598       -1.25191901

