%nproc = 8
%mem   = 6000MB
#p b3lyp/6-31G(2df,p), scf=tight

Opt at the level of B3LYP/6-31G(2df,p), Etot = -5.39436312E+02, ZPE = 0.06643, TE = 0.071416

0        1
C     -0.00143473        0.82145303        0.00000000
C      1.50966418        0.68339379        0.00000000
Cl     -0.81683228       -0.80199855        0.00000000
H     -0.36801639        1.33777988        0.88796831
H     -0.36801639        1.33777988       -0.88796831
H      1.96554411        1.68053384        0.00000000
H      1.85584225        0.14628056        0.88665262
H      1.85584225        0.14628056       -0.88665262

