%nproc = 8
%mem   = 6000MB
#p b3lyp/6-31G(2df,p), scf=tight

Opt at the level of B3LYP/6-31G(2df,p), Etot = -2.91239387E+02, ZPE = 0.021154, TE = 0.025116

0        2
Si      0.00001677        0.00001149        0.08332247
H     -0.00002911        1.41252939       -0.37375171
H      1.22330314       -0.70629080       -0.37375229
H     -1.22329081       -0.70625007       -0.37375847

