%nproc = 8
%mem   = 6000MB
#p b3lyp/6-31G(2df,p), scf=tight

Opt at the level of B3LYP/6-31G(2df,p), Etot = -1.74489613E+02, ZPE = 0.119944, TE = 0.126365

0        1
N      0.00000000        0.00011094        0.36707565
C      0.00000000        1.38841249       -0.05943464
C      1.20205618       -0.69416699       -0.05987823
C     -1.20205618       -0.69416699       -0.05987823
H      0.00000000        1.50741992       -1.16136764
H      0.88620622        1.89792495        0.33266227
H     -0.88620622        1.89792495        0.33266227
H      1.30409994       -0.75444439       -1.16191720
H      1.20031591       -1.71624449        0.33262771
H      2.08667334       -0.18104175        0.33100276
H     -1.30409994       -0.75444439       -1.16191720
H     -2.08667334       -0.18104175        0.33100276
H     -1.20031591       -1.71624449        0.33262771

