%nproc = 8
%mem   = 6000MB
#p b3lyp/6-31G(2df,p), scf=tight

Opt at the level of B3LYP/6-31G(2df,p), Etot = -3.31223539E+02, ZPE = 0.060899, TE = 0.066042

0        1
C      0.00000000        0.00000711       -1.24666587
Si      0.00000000        0.00002489        0.63445753
H      0.00000000       -1.02197416       -1.63722727
H     -0.88506450        0.51095669       -1.63727705
H      0.88506450        0.51095669       -1.63727705
H      0.00000000        1.38974369        1.16076967
H     -1.20357234       -0.69485646        1.16063052
H      1.20357234       -0.69485646        1.16063052

