%nproc = 8
%mem   = 6000MB
#p b3lyp/6-31G(2df,p), scf=tight

Opt at the level of B3LYP/6-31G(2df,p), Etot = -1.52623756E+01, ZPE = 0.004713, TE = 0.008018

0        2
Be      0.00000000        0.00000000        0.26858700
H      0.00000000        0.00000000       -1.07434800

