%nproc = 8
%mem   = 6000MB
#p b3lyp/6-31G(2df,p), scf=tight

Opt at the level of B3LYP/6-31G(2df,p), Etot = -7.97841583E+02, ZPE = 0.015136, TE = 0.020415

0        1
C     -0.00005179       -0.00003718       -0.36588752
Cl     -0.00001760        0.00008175        1.42020913
F      0.00011757        1.24368990       -0.81137506
F      1.07703665       -0.62178543       -0.81153745
F     -1.07708482       -0.62194904       -0.81148109

