%nproc = 8
%mem   = 6000MB
#p b3lyp/6-31G(2df,p), scf=tight

Opt at the level of B3LYP/6-31G(2df,p), Etot = -4.30740676E+02, ZPE = 0.084001, TE = 0.090866

0        1
C      0.00000000        0.00000000        1.37167213
C     -0.00000000        1.21278651        0.69635815
C      0.00000000        1.21278651       -0.69635815
C     -0.00000000        0.00000000       -1.37167213
C      0.00000000       -1.21278651       -0.69635815
C     -0.00000000       -1.21278651        0.69635815
F     -0.00000000        0.00000000        2.70993900
F      0.00000000        0.00000000       -2.70993900
H      0.00000000        2.13787004        1.25991836
H     -0.00000000        2.13787004       -1.25991836
H     -0.00000000       -2.13787004       -1.25991836
H      0.00000000       -2.13787004        1.25991836

