%nproc = 8
%mem   = 6000MB
#p b3lyp/6-31G(2df,p), scf=tight

Opt at the level of B3LYP/6-31G(2df,p), Etot = -1.07432523E+02, ZPE = 0.00226, TE = 0.005603

0        1
Li      0.00000000        0.00000000       -1.17726686
F      0.00000000        0.00000000        0.38587086

