%nproc = 8
%mem   = 6000MB
#p b3lyp/6-31G(2df,p), scf=tight

Opt at the level of B3LYP/6-31G(2df,p), Etot = -1.20996399E+03, ZPE = 0.002713, TE = 0.007514

0        1
Si      0.00000000        0.00000000        0.93744879
Cl      0.00000000        1.63091227       -0.38585539
Cl      0.00000000       -1.63091227       -0.38585539

