%nproc = 8
%mem   = 6000MB
#p b3lyp/6-31G(2df,p), scf=tight

Opt at the level of B3LYP/6-31G(2df,p), Etot = -1.11873395E+02, ZPE = 0.053325, TE = 0.057535

0        1
N      0.00958622        0.71826750       -0.09364289
N     -0.00958622       -0.71826750       -0.09364289
H      0.24191329        1.09077698        0.82602502
H     -0.93565311        1.02455148       -0.30090712
H     -0.24191329       -1.09077698        0.82602502
H      0.93565311       -1.02455148       -0.30090712

