%nproc = 8
%mem   = 6000MB
#p b3lyp/6-31G(2df,p), scf=tight

Opt at the level of B3LYP/6-31G(2df,p), Etot = -1.88599896E+02, ZPE = 0.01183, TE = 0.015379

0        1
C      0.00000000        0.00000000        0.00000000
O      0.00000000        0.00000000        1.16269798
O      0.00000000        0.00000000       -1.16269798

