%nproc = 8
%mem   = 6000MB
#p b3lyp/6-31G(2df,p), scf=tight

Opt at the level of B3LYP/6-31G(2df,p), Etot = -7.96375313E+02, ZPE = 0.001631, TE = 0.005042

0        3
S      0.00000000        0.00000000        0.95603484
S      0.00000000        0.00000000       -0.95603484

