%nproc = 8
%mem   = 6000MB
#p b3lyp/6-31G(2df,p), scf=tight

Opt at the level of B3LYP/6-31G(2df,p), Etot = -3.64732492E+02, ZPE = 0.002891, TE = 0.006209

0        1
Si      0.00000000        0.00000000        0.54876533
O      0.00000000        0.00000000       -0.96407633

