%nproc = 8
%mem   = 6000MB
#p b3lyp/6-31G(2df,p), scf=tight

Opt at the level of B3LYP/6-31G(2df,p), Etot = -4.73368571E+02, ZPE = 0.002617, TE = 0.005942

0        3
O      0.00000000        0.00000000       -1.00008258
S      0.00000000        0.00000000        0.49667258

