%nproc = 8
%mem   = 6000MB
#p b3lyp/6-31G(2df,p), scf=tight

Opt at the level of B3LYP/6-31G(2df,p), Etot = -4.38710618E+02, ZPE = 0.045952, TE = 0.050496

0        1
C     -0.04782916        1.16326952        0.00000000
S     -0.04741961       -0.66652208        0.00000000
H      1.28823853       -0.83292508       -0.00000000
H     -1.09692282        1.46420694       -0.00000000
H      0.43258253        1.55841385        0.89588743
H      0.43258253        1.55841385       -0.89588743

