%nproc = 8
%mem   = 6000MB
#p b3lyp/6-31G(2df,p), scf=tight

Opt at the level of B3LYP/6-31G(2df,p), Etot = -1.84674460E+02, ZPE = 0.011281, TE = 0.014889

0        1
N     -0.00000001        0.00000001       -1.20006536
N      0.00000003       -0.00000003       -0.07233219
O     -0.00000001        0.00000001        1.11348555

