%nproc = 8
%mem   = 6000MB
#p b3lyp/6-31G(2df,p), scf=tight

Opt at the level of B3LYP/6-31G(2df,p), Etot = -4.30470858E+02, ZPE = 0.022811, TE = 0.028822

0        1
C      0.00004179       -0.00010718       -0.32655925
C     -0.00000101       -0.00019716        1.15850173
F     -0.00001566        1.24837766       -0.78272856
F      1.08110082       -0.62424057       -0.78337127
F     -1.08107058       -0.62420500       -0.78323005
N     -0.00005537        0.00037224        2.31094940

