%nproc = 8
%mem   = 6000MB
#p b3lyp/6-31G(2df,p), scf=tight

Opt at the level of B3LYP/6-31G(2df,p), Etot = -2.25426658E+02, ZPE = 0.007463, TE = 0.011358

0        1
O      0.00000000        1.07573698       -0.21571360
O      0.00000000        0.00000000        0.43142720
O      0.00000000       -1.07573698       -0.21571360

