%nproc = 8
%mem   = 6000MB
#p b3lyp/6-31G(2df,p), scf=tight

Opt at the level of B3LYP/6-31G(2df,p), Etot = -5.52232935E+01, ZPE = 0.007398, TE = 0.010703

0        3
N      0.00000000        0.00000000        0.13107469
H      0.00000000        0.00000000       -0.91356069

