%nproc = 8
%mem   = 6000MB
#p b3lyp/6-31G(2df,p), scf=tight

Opt at the level of B3LYP/6-31G(2df,p), Etot = -1.41929273E+03, ZPE = 0.019725, TE = 0.025156

0        1
C     -0.00000323        0.00000418        0.45529573
H     -0.00001008       -0.00013446        1.53988048
Cl      0.00001465        1.69675505       -0.08543729
Cl      1.46956837       -0.84830354       -0.08531630
Cl     -1.46956972       -0.84832123       -0.08530363

