#p b3lyp/6-311+G(3df.2p) scf=tight

H

0 2
H 0.0 0.0 0.0

