#p b3lyp/6-311+G(3df.2p) scf=tight

H_3.0

1 2
H 0.0 0.0 0.0
H 0.0 0.0 3.0

