#p b3lyp/6-311+G(3df.2p) scf=tight

H_8.2

1 2
H 0.0 0.0 0.0
H 0.0 0.0 8.2

