%nproc=8
%chk=Example.chk
#p b3lyp/6-311+G(d,p) opt freq

T

0 1
 
