%nproc=8
%chk=W40-32.chk
#p b3lyp/6-311+G(d,p) opt freq

Cl2O

0 1
O
Cl 1 R
Cl 1 R 2 A

R=1.70054419
A=110.96534087
 
