%nproc=8
%chk=W40-27.chk
#p b3lyp/6-311+G(d,p) opt freq

CCl2

0 1
C
CL 1 r
CL 1 r 2 th

r=1.71825787
th=109.17781831 

