%nproc=8
%chk=W40-22.chk
#p b3lyp/6-311+G(d,p) opt freq

CS2

0 1
C
S 1 R
S 1 R 2 TH

R=1.55799989
TH=180.000000
 
