%nproc=8
%chk=W40-14.chk
#p b3lyp/6-311+G(d,p) opt freq

FO2

0 2
F
O 1 RFO
O 2 ROO 1 AN

RFO=1.63240130 
ROO=1.19195858
AN=110.90510825 

