%nproc=8
%chk=W40-05.chk
#p b3lyp/6-311+G(d,p) opt freq

H2CN

0 2
C 0.00000000  0.00000000 -0.50746961
H 0.00000000  0.93673114 -1.07388107
H 0.00000000 -0.93673114 -1.07388107
N 0.00000000  0.00000000  0.74188975 

