%nproc=8
%chk=W40-24.chk
#p b3lyp/6-311+G(d,p) opt freq

S3

0 1
s
s 1 R
s 1 R 2 TH

R=1.9198308
TH=117.3595 

