%nproc=8
%chk=W40-01.chk
#p b3lyp/6-311+G(d p) opt freq

B2H6

0 1
B   -0.878893855  0.000000000  0.000000000
B    0.878893855  0.000000000  0.000000000
H    0.000000000  0.000000000  0.975221464
H    0.000000000  0.000000000 -0.975221464
H   -1.452345286  1.039659111  0.000000000
H   -1.452345286 -1.039659111  0.000000000
H    1.452345286 -1.039659111  0.000000000
H    1.452345286  1.039659111  0.000000000 

