%nproc=8
%chk=W40-13.chk
#p b3lyp/6-311+G(d,p) opt freq

N2H4

0 1
N
N 1 r1
H 1 r2 2 a1
H 1 r3 2 a2 3 d1
H 2 r2 1 a1 3 d2
H 2 r3 1 a2 5 d1
 
r1=1.43834262
r2=1.01361552
r3=1.01049300
a1=111.17957725
a2=106.70242286
d1=116.45727683
d2=-26.40436249 

