%nproc=8
%chk=W40-10.chk
#p b3lyp/6-311+G(d,p) opt freq

CF2 from Phys. Chem. Chem. Phys., 2002, (14), 3282-3288

0 1
C
F 1 R
F 1 R 2 TH

R=1.2971
TH=104.845

