%nproc=8
%chk=W40-18.chk
#p b3lyp/6-311+G(d,p) opt freq

P4

0 1
P
P 1 R
P 1 R 2 A
P 1 R 2 A 3 D

R=2.19874940
A=60.0
D=-70.52877937 

