%nproc=8
%chk=W42-14.chk
#p b3lyp/6-311+G(d,p) opt freq

O3

0 1
O
O 1 R
O 1 R 2 TH

R=1.26881389
TH=117.11828947
 
