%nproc=8
%chk=W42-02.chk
#p b3lyp/6-311+G(d,p) opt freq

CF

0 2
C
F 1 R

R=1.27475323 

