%nproc=8
%chk=W42-01.chk
#p b3lyp/6-311+G(d,p) opt freq

BN 3Pi State CCSDT/cc-pvQZ

0 3
B 
N 1 1.3302

