%nproc=8
%chk=W42-17.chk
#p b3lyp/6-311+G(d,p) opt freq

F2O

0 1
F
O 1 RFF
F 2 RFF 1 AN

RFF=1.40558760
AN=103.09788981
 
