%nproc=8
%chk=W43-17.chk
#p b3lyp/6-311+G(d,p) opt freq

SiO

0 1
O
SI 1 R

R=1.51704067
 
