%nproc=8
%chk=W43-01.chk
#p b3lyp/6-311+G(d,p) opt freq

Be2

0 1
Be
Be 1 R

R=2.50131878
 
