%nproc=8
%chk=W43-02.chk
#p b3lyp/6-311+G(d,p) opt freq

B2

0 3
B
B 1 R

R=1.587553
 
