%nproc=8
%chk=W43-06.chk
#p b3lyp/6-311+G(d,p) opt freq

BF [from: J. Phys. Chem. A., 102, 2995, 1998]

0 1
B
F 1 R

R=1.2675 

