%nproc=8
%chk=W43-19.chk
#p b3lyp/6-311+G(d,p) opt freq

CS

0 1
C
S 1 R

R=1.54153292
 
