%nproc=8
%chk=W43-08.chk
#p b3lyp/6-311+G(d,p) opt freq

NH2

0 2
N
H 1 R
H 1 R 2 TH

R=1.02503892
TH=102.72058574 

