%nproc=8
%chk=W43-11.chk
#p b3lyp/6-311+G(d,p) opt freq

AlH

0 1
AL
H 1 R

R=1.64997070
 
