%nproc=8
%chk=W44-04.chk
#p b3lyp/6-311+G(d,p) opt freq

H2O

0 1
O
H 1 R
H 1 R 2 TH

R=0.9579
TH=104.12
 
