%nproc=8
%chk=W44-03.chk
#p b3lyp/6-311+G(d,p) opt freq

HF

0 1
F
H 1 R

R=0.9162
 
