%nproc=8
%chk=W44-25.chk
#p b3lyp/6-311+G(d,p) opt freq

ClO

0 2
Cl
O 1 R

R=1.57485468 

