%nproc=8
%chk=W44-05.chk
#p b3lyp/6-311+G(d,p) opt freq

CH

0 2
C
H 1 R

R=1.12026837 

