%nproc=8
%chk=W44-27.chk
#p b3lyp/6-311+G(d,p) opt freq

P2

0 1
P
P 1 R

R=1.90194984 

