%nproc=8
%chk=W44-12.chk
#p b3lyp/6-311+G(d,p) opt freq

C2 Triplet

0 3
C
C 1 R

R=1.31526393

