%nproc=8
%chk=W44-20.chk
#p b3lyp/6-311+G(d,p) opt freq

PH3

0 1
P
H   1 hp2
H   1 hp3        2 hph3
H   1 hp4        3 hph4         2 dih4

hp2         1.414673
hp3         1.414673
hph3         93.554
hp4         1.414673
hph4         93.554
dih4        -93.790 






P  0.000000000  0.000000000 -0.128485868
H  2.249422676  0.000000000  1.316113540
H -1.124711338 -1.948057181  1.316113540
H -1.124711338  1.948057181  1.316113540



