%nproc=8
%chk=W44-22.chk
#p b3lyp/6-311+G(d,p) opt freq

H2S

0 1
S
H 1 R
H 1 R 2 TH

R=1.33772841
TH=92.33056486 

