%nproc=8
%chk=W44-18.chk
#p b3lyp/6-311+G(d,p) opt freq

OF

0 2
O
F 1 R

R=1.35300212

