$molecule
0    1
    C      0.00000000     -1.17162719      0.19064136
    C      0.00000000     -0.72992748     -1.07677692
    C      0.00000000      0.72992748     -1.07677692
    C      0.00000000      1.17162719      0.19064136
    C      0.00000000      0.00000000      1.11578988
    H      0.00000000     -2.20239389      0.51728689
    H      0.00000000     -1.34551447     -1.96712159
    H      0.00000000      1.34551447     -1.96712159
    H      0.00000000      2.20239389      0.51728689
    H     -0.87580402      0.00000000      1.77807532
    H      0.87580402      0.00000000      1.77807532
$end
   
$rem
mem_static = 200
mem_total  = 7500
exchange = b3lyp
basis = G3Large
max_scf_cycles = 50
scf_convergence = 7
symmetry = false
xc_grid = 000075000302
$end
