$molecule
0    1
    C      1.12082640      0.00000000      0.62433049
    C      0.66343959      0.00000000     -0.78668541
    C     -0.66343959      0.00000000     -0.78668541
    C     -1.12082640      0.00000000      0.62433049
    O      0.00000000      0.00000000      1.42741370
    O      2.22312341      0.00000000      1.06365594
    O     -2.22312341      0.00000000      1.06365594
    H      1.35627146      0.00000000     -1.61500787
    H     -1.35627146      0.00000000     -1.61500787
$end
   
$rem
mem_static = 200
mem_total  = 7500
exchange = b3lyp
basis = G3Large
max_scf_cycles = 50
scf_convergence = 7
symmetry = false
xc_grid = 000075000302
$end
