$molecule
0    1
    C     -0.31760411      0.20240813     -1.11990484
    C      0.51587607      1.37783018     -0.66638590
    C      0.51587607      1.37783018      0.66638590
    C     -0.31760411      0.20240813      1.11990484
    C     -1.36504723      0.15994676      0.00000000
    C      0.51355174     -1.06493689     -0.77372905
    C      0.51355174     -1.06493689      0.77372905
    H     -0.68317583      0.23562336     -2.14567858
    H      1.10240849      2.01128177     -1.32031782
    H      1.10240849      2.01128177      1.32031782
    H     -0.68317583      0.23562336      2.14567858
    H     -2.02062854      1.03245884      0.00000000
    H     -1.96079662     -0.75757618      0.00000000
    H      0.02523985     -1.95915202     -1.16904922
    H      1.51693998     -1.02046923     -1.19942954
    H      0.02523985     -1.95915202      1.16904922
    H      1.51693998     -1.02046923      1.19942954
$end
   
$rem
mem_static = 200
mem_total  = 7500
exchange = b3lyp
basis = G3Large
max_scf_cycles = 50
scf_convergence = 7
symmetry = false
xc_grid = 000075000302
$end
