$molecule
0    1
    C      1.22821309      0.19126591     -1.06265452
    C     -0.13436607      0.90662999     -0.76560979
    C     -0.13436607      0.90662999      0.76560979
    C      1.22821309      0.19126591      1.06265452
    C      1.07415822     -1.25923862     -0.66446659
    C      1.07415822     -1.25923862      0.66446659
    O      2.01428054      0.71511092      0.00000000
    C     -1.38256592      0.15457215     -1.16799200
    C     -1.38256592      0.15457215      1.16799200
    N     -2.03053640     -0.20605245      0.00000000
    O     -1.76690180     -0.10233015      2.27730738
    O     -1.76690180     -0.10233015     -2.27730738
    H      1.66709882      0.41473367     -2.03081307
    H     -0.13784548      1.90035114     -1.21304860
    H     -0.13784548      1.90035114      1.21304860
    H      1.66709882      0.41473367      2.03081307
    H      0.89885585     -2.08228492     -1.34250104
    H      0.89885585     -2.08228492      1.34250104
    H     -2.87703756     -0.75645682      0.00000000
$end
   
$rem
mem_static = 200
mem_total  = 7500
exchange = b3lyp
basis = G3Large
max_scf_cycles = 50
scf_convergence = 7
symmetry = false
xc_grid = 000075000302
$end
