%nproc=4
%mem=1000mb
#P B3LYP/6-311++G(3df,2p) scf=tight nosymm

He-He at equlibium r=2.9695 Anstron with dE=-0.0218 kcal/mol

0 1
He
He 1 2.9695


