%nproc=4
%mem=1000mb
#P B3LYP/6-311++G(3df,2p) scf=tight nosymm

He-He at r=3.8 Anstron

0 1
He
He 1 3.8


