$molecule
0   1
      F                -0.000000    0.000000    2.425920
     Cl                -0.000000    0.000000    0.769574
     @N                 0.000000    0.000000   -1.839519
     @C                 0.000000    0.000000   -2.995731
     @H                 0.000000    0.000000   -4.065026
$end
   
$rem
mem_static = 200
mem_total  = 7500
exchange = b3lyp
basis = 6-311+g(3df,2p)
scf_convergence = 7
symmetry = false
xc_grid = 000075000302
$end
