$molecule
0   1
     @N                 0.000000    0.000000   -2.838451
     @H                 0.000000    0.942687   -3.215383
     @H                 0.816391   -0.471343   -3.215383
     @H                -0.816391   -0.471343   -3.215383
     Cl                 0.000000    0.000000   -0.150044
     Cl                 0.000000    0.000000    1.886239
$end
   
$rem
mem_static = 200
mem_total  = 7500
exchange = b3lyp
basis = 6-311+g(3df,2p)
scf_convergence = 7
symmetry = false
xc_grid = 000075000302
$end
