$molecule
0   1
     @O                 2.239819    0.000027   -0.088231
     @H                 2.600887    0.761963    0.377055
     @H                 2.601087   -0.761727    0.377194
     Cl                -0.315868   -0.000066   -0.016914
      F                -1.972308    0.000074    0.026570
$end
   
$rem
mem_static = 200
mem_total  = 7500
exchange = b3lyp
basis = 6-311+g(3df,2p)
scf_convergence = 7
symmetry = false
xc_grid = 000075000302
$end
