$molecule
0   1
     @S                 1.842529    0.000013   -0.101543
     @H                 1.822779   -0.961810    0.834650
     @H                 1.821877    0.961860    0.834622
     Cl                -1.911636   -0.000011    0.003498
      H                -0.627317   -0.000058   -0.104051
$end
   
$rem
mem_static = 200
mem_total  = 7500
exchange = b3lyp
basis = 6-311+g(3df,2p)
scf_convergence = 7
symmetry = false
xc_grid = 000075000302
$end
