$molecule
0   1
      C          -1.447648    1.155649    0.018513 
      S          -1.414595   -0.659846   -0.083544 
      H          -1.466284    1.516816   -1.009880 
      H          -0.552971    1.535265    0.510012 
      H          -2.344239    1.497733    0.531863 
      H          -1.377361   -0.890921    1.238214 
     @Cl           2.125766    0.024081    0.003156 
     @H            0.922238   -0.444635   -0.098247 
$end
   
$rem
mem_static = 200
mem_total  = 7500
exchange = b3lyp
basis = 6-311+g(3df,2p)
scf_convergence = 7
symmetry = false
xc_grid = 000075000302
$end
