$molecule
0   1
      O          -1.141087    1.445212     .000000
      C           -.061754    2.030947     .000000
      H           -.013687    3.130169     .000000
      N           1.141087    1.435877     .000000
      H           1.217686     .416527     .000000
      H           1.971446    2.002095     .000000
      @O           1.141087   -1.445212     .000000
      @C            .061754   -2.030947     .000000
      @H            .013687   -3.130169     .000000
      @N          -1.141087   -1.435877     .000000
      @H          -1.217686    -.416527     .000000
      @H          -1.971446   -2.002095     .000000
$end
   
$rem
mem_static = 200
mem_total  = 7500
exchange = b3lyp
basis = 6-311+g(3df,2p)
scf_convergence = 7
symmetry = false
xc_grid = 000075000302
$end
