$molecule
0   1
      @C                   0.000000   -2.192850   -0.668395
      @C                  -0.000000   -2.192860    0.668395
      @H                  -0.925187   -2.192316   -1.233982
      @H                   0.925187   -2.192325   -1.233983
      @H                  -0.925187   -2.192320    1.233982
      @H                   0.925187   -2.192311    1.233982
      F                   0.000000    0.785688    0.000000
      F                   0.000000    2.205648    0.000001
$end
   
$rem
mem_static = 200
mem_total  = 7500
exchange = b3lyp
basis = 6-311+g(3df,2p)
scf_convergence = 7
symmetry = false
xc_grid = 000075000302
$end
