$molecule
0   1
      N                 0.000000    0.000000   -2.149985
      H                 0.000000    0.939652   -2.534401
      H                 0.813762   -0.469826   -2.534401
      H                -0.813762   -0.469826   -2.534401
      @F                 0.000000    0.000000    0.545771
      @F                 0.000000    0.000000    1.971240
$end
   
$rem
mem_static = 200
mem_total  = 7500
exchange = b3lyp
basis = 6-311+g(3df,2p)
scf_convergence = 7
symmetry = false
xc_grid = 000075000302
$end
