$molecule
0    1
   Al      0.00000000      0.00000000      1.67969029
   Al      0.00000000      0.00000000     -1.67969029
   Br      0.00000000      1.77545902      0.00000000
   Br      0.00000000     -1.77545902      0.00000000
   Br     -1.96068911      0.00000000      2.77877074
   Br      1.96068911      0.00000000      2.77877074
   Br      1.96068911      0.00000000     -2.77877074
   Br     -1.96068911      0.00000000     -2.77877074
$end
   
$rem
mem_static = 200
mem_total  = 7500
exchange = b3lyp
basis = G3Large
max_scf_cycles = 50
scf_convergence = 7
symmetry = false
xc_grid = 000075000302
$end
