$molecule
0    1
    C      1.75852951      0.00000000      2.19220144
   Al      0.00000000      0.00000000      1.31372259
    C     -1.75852951      0.00000000      2.19220144
    H      0.00000000      1.14812573      0.00000000
   Al      0.00000000      0.00000000     -1.31372259
    C      1.75852951      0.00000000     -2.19220144
    H      0.00000000     -1.14812573      0.00000000
    C     -1.75852951      0.00000000     -2.19220144
    H     -1.88047833     -0.87780045     -2.83052314
    H     -2.57966323      0.00000000     -1.47383821
    H     -1.88047833      0.87780045     -2.83052314
    H      1.88047833     -0.87780045     -2.83052314
    H      1.88047833      0.87780045     -2.83052314
    H      2.57966323      0.00000000     -1.47383821
    H     -1.88047833     -0.87780045      2.83052314
    H     -1.88047833      0.87780045      2.83052314
    H     -2.57966323      0.00000000      1.47383821
    H      1.88047833     -0.87780045      2.83052314
    H      2.57966323      0.00000000      1.47383821
    H      1.88047833      0.87780045      2.83052314
$end
   
$rem
mem_static = 200
mem_total  = 7500
exchange = b3lyp
basis = G3Large
max_scf_cycles = 50
scf_convergence = 7
symmetry = false
xc_grid = 000075000302
$end
