$molecule
0    1
    C      0.00000000     -1.73000836      0.24260868
   Al      0.00000000      0.00000000     -0.69738917
    C      0.00000000      1.73000836      0.24260868
    H      0.00000000      0.00000000     -2.28535720
    H      0.00000000     -1.63396193      1.32844282
    H      0.87344265     -2.32376398     -0.03983915
    H     -0.87344265     -2.32376398     -0.03983915
    H     -0.87344265      2.32376398     -0.03983915
    H      0.87344265      2.32376398     -0.03983915
    H      0.00000000      1.63396193      1.32844282
$end
   
$rem
mem_static = 200
mem_total  = 7500
exchange = b3lyp
basis = G3Large
max_scf_cycles = 50
scf_convergence = 7
symmetry = false
xc_grid = 000075000302
$end
