$molecule
0 1
Mg           0.000           0.000        1.94550
Mg           0.000           0.000       -1.94550
$end
   
$rem
mem_static = 200
mem_total  = 7500
exchange = b3lyp
basis = G3Large
max_scf_cycles = 50
scf_convergence = 7
symmetry = false
xc_grid = 000075000302
$end
