$molecule
0 1
C        -0.7875056824   0.091531191   -0.0211407131  
 C        0.7224847414   -0.0399886743   -0.0171373551 
 H        -1.0637351349   1.1426190748   -0.1397445132 
 H        -1.2136027089   -0.2727242763   0.9158096731 
 H        -1.2264673694   -0.4747372824   -0.8450227922
 O        1.0312399387   -1.4479023367   0.141674761   
 H        1.1716999529   0.5146154791   0.8107825333   
 H        1.1587136835   0.3125532837   -0.9553705164         
 N        2.4297790918   -1.6576966685   0.1586233118
 O        2.6872424874   -2.7944427904   0.2866656107  
$end
   
$rem
exchange = b3lyp
basis = 6-311+g(3df   2p)
3333 = 1 ! do the MP2 calculation using KS-orbitals
$end
