$molecule
0 1
 C                 -0.00003400   -0.00005500    0.25509900
 C                 -0.00038600   -0.00061100    1.77134100
 Cl                 0.78290800    1.50432700   -0.36373900
 Cl                -1.69403200   -0.07403900   -0.36430500
 Cl                 0.91136500   -1.42991800   -0.36424900
 H                 -0.47532000   -0.91188800    2.13620700
 H                 -0.55216700    0.86595500    2.13692500
 H                  1.02590700    0.04363600    2.13721000  
$end
   
$rem
exchange = b3lyp
basis = 6-311+g(3df,2p)
3333 = 1 ! do the MP2 calculation using KS-orbitals
$end
