$molecule
0 1
 C                 -1.88231400    0.10466100   -0.00160500
 C                 -0.63512600   -0.75384100    0.00214400
 N                  0.65735200    0.05213700    0.00011500
 O                  0.58572900    1.26982700    0.00098500
 O                  1.69226100   -0.59694600   -0.00168300
 H                 -2.75574700   -0.55282500    0.00033600
 H                 -1.92909900    0.73832900   -0.88771800
 H                 -1.92994600    0.74483300    0.87974000
 H                 -0.55243100   -1.39489800   -0.87652500
 H                 -0.55352000   -1.38836700    0.88570600  
$end
   
$rem
exchange = b3lyp
basis = 6-311+g(3df,2p)
3333 = 1 ! do the MP2 calculation using KS-orbitals
$end
