$molecule
0 1
 C                  0.11754900   -0.78388200    0.00000000
 C                  0.00000000    0.72830500    0.00000000
 C                 -1.46269500    1.18697000    0.00000000
 F                  1.47012200   -1.16719500    0.00000000
 H                 -1.52791500    2.27721000    0.00000000
 H                 -1.99635500    0.82423800    0.88380200
 H                 -1.99635500    0.82423800   -0.88380200
 H                  0.51982600    1.12065200   -0.87962200
 H                  0.51982600    1.12065200    0.87962200
 H                 -0.33962100   -1.22529700   -0.89081800
 H                 -0.33962100   -1.22529700    0.89081800  
$end
   
$rem
exchange = b3lyp
basis = 6-311+g(3df,2p)
3333 = 1 ! do the MP2 calculation using KS-orbitals
$end
