$molecule
0 1
 C                 -0.19134400   -0.35410000    0.51949800
 C                 -1.22646700    0.24260800   -0.43308400
 C                 -2.65213200   -0.08438500    0.02079600
 N                  1.21135800   -0.01044000    0.06781700
 O                  1.52110500    1.17182000    0.07603600
 O                  1.93600700   -0.92851400   -0.28632400
 H                 -3.38025000    0.34585500   -0.67030500
 H                 -2.85727400    0.32275300    1.01519500
 H                 -2.82584400   -1.16370300    0.05631100
 H                 -1.05390400   -0.15165700   -1.43943500
 H                 -1.08001700    1.32408200   -0.47850600
 H                 -0.23414800   -1.44079500    0.55841500
 H                 -0.28531200    0.06536100    1.52265000  
$end
   
$rem
exchange = b3lyp
basis = 6-311+g(3df,2p)
3333 = 1 ! do the MP2 calculation using KS-orbitals
$end
