$molecule
0 1
 C                  1.27506600    1.27757600    0.02804500
 C                  0.60189100    0.00080100   -0.46575800
 C                  1.27584100   -1.27706100    0.02406100
 N                 -0.85224800   -0.00025500    0.01511100
 O                 -1.04448300   -0.00322300    1.22148000
 O                 -1.72733500    0.00204800   -0.83787700
 H                  0.75008400   -2.16573400   -0.33183800
 H                  1.31197200   -1.30109200    1.11433100
 H                  2.29778900   -1.30929800   -0.36085700
 H                  0.74868400    2.16701500   -0.32500700
 H                  2.29696100    1.31172400   -0.35684500
 H                  1.31128700    1.29816400    1.11838500
 H                  0.50672100    0.00250900   -1.55085200  
$end
   
$rem
exchange = b3lyp
basis = 6-311+g(3df,2p)
3333 = 1 ! do the MP2 calculation using KS-orbitals
$end
