$molecule
0 1
 N                -1.715625    0.036178    0.000070
 O                -0.453266   -0.604541    0.000047
 O                -1.728301    1.245355   -0.000066
 O                -2.632505   -0.738071   -0.000072
 C                 0.684031    0.298238    0.000032
 C                 1.920052   -0.587942    0.000009
 C                 3.204092    0.248821   -0.000008
 H                 4.083033   -0.399249   -0.000024
 H                 3.264730    0.890041    0.884118
 H                 3.264702    0.890049   -0.884129
 H                 1.893002   -1.237879   -0.879216
 H                 1.893030   -1.237887    0.879229
 H                 0.637217    0.932517    0.888268
 H                 0.637189    0.932525   -0.888197
$end
   
$rem
exchange = b3lyp
basis = 6-311+g(3df,2p)
3333 = 1 ! do the MP2 calculation using KS-orbitals
$end
