$molecule
0 1
 N                 1.375275   -0.064983    0.041555
 O                 0.117681   -0.624567   -0.281037
 O                 1.401229    0.878830    0.798155
 O                 2.287029   -0.633380   -0.494125
 C                -1.057185    0.066241    0.269607
 C                -2.142172   -1.000672    0.265461
 C                -1.391680    1.288591   -0.573335
 H                -2.283278    1.776967   -0.171043
 H                -1.595149    0.997327   -1.606794
 H                -0.577956    2.014896   -0.561154
 H                -3.060475   -0.582929    0.685431
 H                -1.845743   -1.861046    0.867609
 H                -2.352446   -1.340694   -0.751191
 H                -0.813172    0.358336    1.291918
$end
   
$rem
exchange = b3lyp
basis = 6-311+g(3df,2p)
3333 = 1 ! do the MP2 calculation using KS-orbitals
$end
