$molecule
0 1
  N          -0.135117    1.429825    0.052967
  H          -0.106075    1.500583    1.067004
  H          -1.025084    1.816809   -0.245965
  C          -0.002716    0.026552   -0.369504
  C          -1.144291   -0.883685    0.111916
  C           1.361173   -0.497853    0.082859
  H           1.526634   -1.520166   -0.267358
  H           1.427982   -0.506747    1.177151
  H           2.162429    0.137742   -0.299344
  H          -1.031999   -1.903439   -0.270883
  H          -2.114999   -0.505492   -0.223271
  H          -1.162803   -0.934621    1.206420
  H          -0.015257    0.036470   -1.466150
$end
   
$rem
exchange = b3lyp
basis = 6-311+g(3df,2p)
3333 = 1 ! do the MP2 calculation using KS-orbitals
$end
