$molecule
0 1
 C                  1.86153400    0.01924600   -0.27806600
 C                  0.72311700   -0.29787900    0.33543900
 C                 -0.53865600    0.51826400    0.30832200
 C                 -1.73055700   -0.24403500   -0.29331600
 H                  2.73621300   -0.61911300   -0.22197300
 H                  1.95921300    0.93261700   -0.85791600
 H                 -2.63877400    0.36426800   -0.26653400
 H                 -1.93094100   -1.16601500    0.26106900
 H                 -1.53495300   -0.51757100   -1.33360600
 H                 -0.36443600    1.44246000   -0.25225700
 H                 -0.79246800    0.81678100    1.33377300
 H                  0.67351500   -1.22699300    0.90316800  
$end
   
$rem
exchange = b3lyp
basis = 6-311+g(3df,2p)
3333 = 1 ! do the MP2 calculation using KS-orbitals
$end
