$molecule
0 1
 C                  1.98997800   -0.05216400    0.23910000
 C                  0.89879400   -0.62998600   -0.25998800
 C                 -0.47315200   -0.01889800   -0.41926300
 C                 -0.56428200    1.44665400    0.01657200
 C                 -1.52317000   -0.88180300    0.30844000
 H                  2.92603400   -0.59460800    0.31175300
 H                  1.99765100    0.97361200    0.59064300
 H                 -2.53288000   -0.50441200    0.12274200
 H                 -1.34925700   -0.87149700    1.38881500
 H                 -1.48650700   -1.92240800   -0.02649100
 H                 -1.56961700    1.83532800   -0.16660000
 H                  0.14213500    2.07591600   -0.53108400
 H                 -0.35638000    1.55579000    1.08569300
 H                 -0.71091000   -0.06507700   -1.49243200
 H                  0.97072600   -1.66546500   -0.59220200  
$end
   
$rem
exchange = b3lyp
basis = 6-311+g(3df,2p)
3333 = 1 ! do the MP2 calculation using KS-orbitals
$end
