$molecule
0 1
 C            2.343338   -0.777925    0.030014
 C            1.140004    0.146410   -0.018488
 C           -0.226153   -0.525400   -0.049552
 C           -1.413120    0.431106    0.057034
 C           -2.760598   -0.293366   -0.005189
 O            1.267031    1.351721   -0.025262
 H            3.256259   -0.210995   -0.148895
 H            2.252754   -1.586292   -0.701096
 H            2.401968   -1.244858    1.019263
 H           -3.591199    0.412795    0.075451
 H           -2.863821   -1.018873    0.808304
 H           -2.879257   -0.836364   -0.948506
 H           -1.346414    1.172234   -0.744107
 H           -1.334422    0.996092    0.990822
 H           -0.253387   -1.277733    0.750327
 H           -0.279552   -1.104729   -0.982384
$end
   
$rem
exchange = b3lyp
basis = 6-311+g(3df,2p)
3333 = 1 ! do the MP2 calculation using KS-orbitals
$end
