$molecule
0 1
 C            -2.101691   -0.032394   -0.115691
 C            -0.765076   -0.660206    0.293144
 C             0.481864   -0.002864   -0.328637
 C             1.739377   -0.824493   -0.012314
 C             0.663597    1.453812    0.121458
 H            -2.941052   -0.591378    0.307467
 H            -2.220504   -0.032368   -1.204271
 H            -2.193001    1.001222    0.228088
 H             1.558286    1.893402   -0.329431
 H             0.778791    1.511775    1.209939
 H            -0.186266    2.081338   -0.157992
 H             2.627015   -0.390194   -0.481947
 H             1.642973   -1.854944   -0.367358
 H             1.920205   -0.860265    1.067921
 H             0.346072   -0.003891   -1.419390
 H            -0.772984   -1.720155    0.012448
 H            -0.667956   -0.637664    1.386764
$end
   
$rem
exchange = b3lyp
basis = 6-311+g(3df,2p)
3333 = 1 ! do the MP2 calculation using KS-orbitals
$end
