$molecule
0 1
 C                 -0.24169000    0.00000000   -0.00000100
 C                  0.42999200    1.21869000   -0.00000100
 C                  1.82144100    1.21018900    0.00000000
 C                  2.51578900    0.00000000    0.00000100
 C                  1.82144000   -1.21018900    0.00000000
 C                  0.42999200   -1.21869000   -0.00000100
 N                 -1.72270800    0.00000000   -0.00000100
 O                 -2.29111800   -1.08434800    0.00000100
 O                 -2.29111800    1.08434800    0.00000100
 H                  2.36271300   -2.14872900    0.00000100
 H                  3.59973300    0.00000000    0.00000200
 H                  2.36271300    2.14872900    0.00000100
 H                 -0.13504900   -2.14045800   -0.00000100
 H                 -0.13504900    2.14045800   -0.00000100  
$end
   
$rem
exchange = b3lyp
basis = 6-311+g(3df,2p)
3333 = 1 ! do the MP2 calculation using KS-orbitals
$end
