$molecule
0 1
 C                  1.99245700    0.46344400   -0.00001500
 C                  0.53391000    0.20653200   -0.00000700
 C                  0.03814900   -1.10460800   -0.00000600
 C                 -1.33269500   -1.32600900    0.00000000
 C                 -2.21670400   -0.24252800    0.00000500
 C                 -1.72957200    1.06372500    0.00000400
 C                 -0.35493500    1.28692600   -0.00000200
 O                  2.84894900   -0.39241100    0.00001400
 H                  2.27090700    1.53898500    0.00001900
 H                 -2.41776800    1.90109500    0.00000700
 H                 -3.28657500   -0.41927400    0.00000900
 H                 -1.71925100   -2.33880600    0.00000100
 H                  0.03468500    2.30039900   -0.00000300
 H                  0.74273600   -1.92800000   -0.00001000  
$end
   
$rem
exchange = b3lyp
basis = 6-311+g(3df,2p)
3333 = 1 ! do the MP2 calculation using KS-orbitals
$end
