$molecule
0 1
 C                 -1.35865300   -1.24473000   -0.56940400
 C                 -0.64646900   -0.00000500    0.00051300
 C                  0.85762600    0.00000000   -0.44797700
 C                  1.64018500    1.25260400   -0.01634800
 C                  1.64018600   -1.25260800   -0.01636000
 C                 -1.35844100    1.24518800   -0.56864600
 C                 -0.79644800   -0.00045500    1.53427900
 H                 -0.98471300    2.17218900   -0.12822000
 H                 -2.43216300    1.19701100   -0.36334600
 H                 -1.23102700    1.31174700   -1.65432100
 H                  2.65493700    1.21738800   -0.42355500
 H                  1.73208100    1.31502400    1.07232500
 H                  1.18084100    2.17769700   -0.36960000
 H                  2.65490900   -1.21743000   -0.42364100
 H                  1.18079500   -2.17770400   -0.36954500
 H                  1.73215700   -1.31498800    1.07230700
 H                  0.83220500    0.00000800   -1.54670900
 H                 -0.34162300    0.88383800    1.98835400
 H                 -0.34198500   -0.88521500    1.98780300
 H                 -1.85562100   -0.00032300    1.81054400
 H                 -2.43238700   -1.19643500   -0.36418900
 H                 -0.98517500   -2.17205700   -0.12945100
 H                 -1.23113800   -1.31071700   -1.65510000  
$end
   
$rem
exchange = b3lyp
basis = 6-311+g(3df,2p)
3333 = 1 ! do the MP2 calculation using KS-orbitals
$end
