$molecule
0 1
 C                1.698890   -0.204361   -0.000500
 C                2.558607    1.046260    0.000198
 O                2.213303   -1.307072    0.000177
 C                0.204454   -0.057630   -0.000243
 C               -0.579991   -1.219820   -0.000069
 C               -1.966603   -1.134781    0.000139
 C               -2.590411    0.114548    0.000182
 C               -1.821102    1.276441    0.000019
 C               -0.430516    1.191364   -0.000182
 H                2.355831    1.660605   -0.881924
 H                3.606100    0.749706    0.000712
 H                2.354888    1.660357    0.882277
 H               -2.302801    2.247605    0.000053
 H               -3.672713    0.181186    0.000345
 H               -2.564340   -2.039290    0.000267
 H                0.153849    2.103431   -0.000303
 H               -0.077204   -2.179145   -0.000115
$end
   
$rem
exchange = b3lyp
basis = 6-311+g(3df,2p)
3333 = 1 ! do the MP2 calculation using KS-orbitals
$end
