$molecule
0 2
 C                 -1.30484800   -0.29380900   -0.02794700
 C                 -0.08112000    0.55198100    0.04825200
 C                  1.22868700   -0.24240900   -0.03599200
 H                 -1.28664200   -1.32704500    0.30046900
 H                 -2.26502600    0.13569900   -0.28768500
 H                 -0.08557600    1.12624600    0.99166700
 H                 -0.10806600    1.31393200   -0.74124300
 H                  2.09728100    0.41549000    0.05321100
 H                  1.30370200   -0.77447100   -0.98835600
 H                  1.28800900   -0.98442300    0.76605800  
$end
   
$rem
exchange = b3lyp
basis = 6-311+g(3df,2p)
3333 = 1 ! do the MP2 calculation using KS-orbitals
$end
