$molecule
0 2
 C                  0.26576000   -0.63505800    1.27170900
 H                  1.13277100   -1.30160200    1.29156800
 H                 -0.63713800   -1.25176100    1.31976900
 H                  0.29767200   -0.01519900    2.17229600
 C                  0.26576000    0.23063900    0.00000000
 H                  1.21460100    0.79904900    0.00000000
 C                  0.26576000   -0.63505800   -1.27170900
 H                  0.29767200   -0.01519900   -2.17229600
 H                  1.13277100   -1.30160200   -1.29156800
 H                 -0.63713800   -1.25176100   -1.31976900
 C                 -0.85548300    1.21672200    0.00000000
 H                 -1.22599400    1.63730000    0.92808800
 H                 -1.22599400    1.63730000   -0.92808800  
$end
   
$rem
exchange = b3lyp
basis = 6-311+g(3df,2p)
3333 = 1 ! do the MP2 calculation using KS-orbitals
$end
