$molecule
0 1
 C                 -0.68634600   -1.77303500    0.00000000
 C                 -1.00675200   -0.42093200    0.00000000
 C                  0.00000000    0.55912600    0.00000000
 C                  1.33584100    0.12938200    0.00000000
 C                  1.65932600   -1.22530100    0.00000000
 C                  0.64858400   -2.18331100    0.00000000
 H                 -1.47972800   -2.51235400    0.00000000
 H                 -2.04947000   -0.12535200    0.00000000
 H                  2.12854200    0.87066400    0.00000000
 H                  2.69962800   -1.53111700    0.00000000
 H                  0.89488500   -3.23905000    0.00000000
 C                 -0.28117000    2.00405000    0.00000000
 C                 -1.47557400    2.60399300    0.00000000
 H                  0.60538700    2.63477800    0.00000000
 H                 -1.55271200    3.68450800    0.00000000
 H                 -2.40999000    2.05409600    0.00000000  
$end
   
$rem
exchange = b3lyp
basis = 6-311+g(3df,2p)
3333 = 1 ! do the MP2 calculation using KS-orbitals
$end
