$molecule
0 1
 O                  0.01422300    0.73288600    0.00000000
 O                 -0.01422300   -0.73288600    0.00000000
 C                 -1.34924900    1.14033100    0.00000000
 C                 -1.34924900    2.66028400    0.00000000
 C                  1.34924900   -1.14033100    0.00000000
 C                  1.34924900   -2.66028400    0.00000000
 H                  1.84818200   -0.74018700    0.89017900
 H                  1.84818200   -0.74018700   -0.89017900
 H                 -1.84818200    0.74018700    0.89017900
 H                 -1.84818200    0.74018700   -0.89017900
 H                 -0.84650800    3.05202300    0.88690700
 H                 -2.37986800    3.02433700    0.00000000
 H                 -0.84650800    3.05202300   -0.88690700
 H                  2.37986800   -3.02433700    0.00000000
 H                  0.84650800   -3.05202300   -0.88690700
 H                  0.84650800   -3.05202300    0.88690700  
$end
   
$rem
exchange = b3lyp
basis = 6-311+g(3df,2p)
3333 = 1 ! do the MP2 calculation using KS-orbitals
$end
