$molecule
0 1
 C                  0.02232700   -0.00005900   -0.00000400
 C                 -1.48017100   -0.00002500   -0.00000400
 F                  0.52848100    1.25412800   -0.07559400
 F                  0.52851800   -0.69252400   -1.04811600
 F                  0.52850800   -0.56156400    1.12371600
 H                 -1.84098600   -1.02659400    0.06195400
 H                 -1.84076200    0.45971900   -0.92003500
 H                 -1.84075800    0.56701900    0.85806900  
$end
   
$rem
exchange = b3lyp
basis = 6-311+g(3df,2p)
3333 = 1 ! do the MP2 calculation using KS-orbitals
$end
