$molecule
0 2
 C                  0.00000000    0.00000000    0.28070900
 Cl                 0.00000000    1.70093800   -0.03302500
 Cl                -1.47305600   -0.85046900   -0.03302500
 Cl                 1.47305600   -0.85046900   -0.03302500  
$end
   
$rem
exchange = b3lyp
basis = 6-311+g(3df,2p)
3333 = 1 ! do the MP2 calculation using KS-orbitals
$end
