$molecule
0 1
 C                  0.74279800    0.00000000    0.00000000
 C                  1.46384300    1.12707300   -0.42178200
 C                  2.85628700    1.12741700   -0.42202200
 C                  3.55916600    0.00000000    0.00000000
 C                  2.85628800   -1.12741600    0.42202200
 C                  1.46384300   -1.12707300    0.42178300
 C                 -0.74279800    0.00000000    0.00000000
 C                 -1.46384300   -1.12707300   -0.42178200
 C                 -2.85628800   -1.12741600   -0.42202200
 C                 -3.55916600    0.00000000    0.00000000
 C                 -2.85628800    1.12741600    0.42202200
 C                 -1.46384300    1.12707300    0.42178300
 H                  0.92838100    2.00108400   -0.77514200
 H                  3.39285500    2.00677800   -0.76092800
 H                  4.64327100    0.00000000   -0.00000100
 H                  3.39285600   -2.00677800    0.76092800
 H                  0.92838200   -2.00108400    0.77514300
 H                 -0.92838200   -2.00108400   -0.77514200
 H                 -3.39285500   -2.00677800   -0.76092800
 H                 -4.64327100    0.00000000   -0.00000100
 H                 -3.39285500    2.00677800    0.76092800
 H                 -0.92838200    2.00108400    0.77514300  
$end
   
$rem
exchange = b3lyp
basis = 6-311+g(3df,2p)
3333 = 1 ! do the MP2 calculation using KS-orbitals
$end
