$molecule
0 1
  S           -1.054160    0.067734   -0.055161
  H           -1.308609   -0.873002    0.882554
  S            1.054160   -0.067742   -0.055150
  H            1.308608    0.873138    0.882420
$end
   
$rem
exchange = b3lyp
basis = 6-311+g(3df,2p)
3333 = 1 ! do the MP2 calculation using KS-orbitals
$end
