$molecule
0    1
    C      0.00000000      0.00000000     -0.95122579
    C      0.00000000      0.00000000      0.50451097
    C      0.00000000      0.00000000      1.70543896
    H     -0.51019465     -0.88368305     -1.34212543
    H     -0.51019465      0.88368305     -1.34212543
    H      1.02038929      0.00000000     -1.34212543
    H      0.00000000      0.00000000      2.76765214
$end
   
$rem
mem_static = 200
mem_total  = 7500
exchange = b3lyp
basis = G3Large
max_scf_cycles = 50
scf_convergence = 7
symmetry = false
xc_grid = 000075000302
$end
