$molecule
0    1
    C      0.00000000      0.00000000      0.48865287
    C      0.00000000      0.00000000     -0.96688357
    N      0.00000000      0.00000000     -2.11787959
    H      0.51196222     -0.88674458      0.86537010
    H      0.51196222      0.88674458      0.86537010
    H     -1.02392445      0.00000000      0.86537010
$end
   
$rem
mem_static = 200
mem_total  = 7500
exchange = b3lyp
basis = G3Large
max_scf_cycles = 50
scf_convergence = 7
symmetry = false
xc_grid = 000075000302
$end
