$molecule
0    1
    C     -1.02154456     -0.07142063      0.00000000
    N      0.27003873     -0.73363894      0.00000000
    C      1.30737224     -0.01701869      0.00000000
    H     -0.95632658      1.02641201      0.00000000
    H     -1.58601784     -0.39614879      0.87746915
    H     -1.58601784     -0.39614879     -0.87746915
    H      1.28670864      1.08242401      0.00000000
    H      2.28578721     -0.49446016      0.00000000
$end
   
$rem
mem_static = 200
mem_total  = 7500
exchange = b3lyp
basis = G3Large
max_scf_cycles = 50
scf_convergence = 7
symmetry = false
xc_grid = 000075000302
$end
