$molecule
0    1
    N      1.32360317     -0.04093707      0.00000000
    C      0.48162185      0.25020318      1.16304798
    C     -0.86626093     -0.38758822      0.77795980
    C     -0.86626093     -0.38758822     -0.77795980
    C      0.48162185      0.25020318     -1.16304798
    H      2.18783371      0.48830811      0.00000000
    H      0.91114935     -0.17662476      2.07157072
    H      0.34818246      1.33308654      1.32781273
    H     -1.70638393      0.16626836      1.19918492
    H     -0.92402723     -1.40903063      1.15578824
    H     -0.92402723     -1.40903063     -1.15578824
    H     -1.70638393      0.16626836     -1.19918492
    H      0.91114935     -0.17662476     -2.07157072
    H      0.34818246      1.33308654     -1.32781273
$end
   
$rem
mem_static = 200
mem_total  = 7500
exchange = b3lyp
basis = G3Large
max_scf_cycles = 50
scf_convergence = 7
symmetry = false
xc_grid = 000075000302
$end
