$molecule
0    1
    N     -1.19297872      0.00000000     -0.92589032
    C     -1.18150935      0.00000000      0.40877864
    C      0.00000000      0.00000000      1.13883641
    C      1.18150935      0.00000000      0.40877864
    N      1.19297872      0.00000000     -0.92589032
    C      0.00000000      0.00000000     -1.52187514
    H     -2.14884594      0.00000000      0.90153352
    H      0.00000000      0.00000000      2.22104540
    H      2.14884594      0.00000000      0.90153352
    H      0.00000000      0.00000000     -2.60685033
$end
   
$rem
mem_static = 200
mem_total  = 7500
exchange = b3lyp
basis = G3Large
max_scf_cycles = 50
scf_convergence = 7
symmetry = false
xc_grid = 000075000302
$end
