$molecule
0    1
    N      0.00000000      1.40201909      0.00000000
    C     -1.13133171      0.69633208      0.00000000
    C     -1.13133171     -0.69633208      0.00000000
    N      0.00000000     -1.40201909      0.00000000
    C      1.13133171     -0.69633208      0.00000000
    C      1.13133171      0.69633208      0.00000000
    H     -2.06197283      1.25418593      0.00000000
    H     -2.06197283     -1.25418593      0.00000000
    H      2.06197283     -1.25418593      0.00000000
    H      2.06197283      1.25418593      0.00000000
$end
   
$rem
mem_static = 200
mem_total  = 7500
exchange = b3lyp
basis = G3Large
max_scf_cycles = 50
scf_convergence = 7
symmetry = false
xc_grid = 000075000302
$end
