$molecule
0    1
    C     -0.03215574      0.92156005      0.00000000
    C     -0.03422122      0.20494203     -1.20418611
    C     -0.03698032     -1.18394024     -1.19868932
    C     -0.03871347     -1.89240986      0.00000000
    C     -0.03698032     -1.18394024      1.19868932
    C     -0.03422122      0.20494203      1.20418611
    N     -0.08913495      2.31620896      0.00000000
    H     -0.03805150      0.74307318     -2.14623777
    H     -0.03692739     -1.71647138     -2.14280830
    H     -0.04002356     -2.97499479      0.00000000
    H     -0.03692739     -1.71647138      2.14280830
    H     -0.03805150      0.74307318      2.14623777
    H      0.24619429      2.76721424     -0.83727837
    H      0.24619429      2.76721424      0.83727837
$end
   
$rem
mem_static = 200
mem_total  = 7500
exchange = b3lyp
basis = G3Large
max_scf_cycles = 50
scf_convergence = 7
symmetry = false
xc_grid = 000075000302
$end
