$molecule
0    1
    O     -1.58681182      0.13464402     -0.26794830
    C     -0.40939771      0.04430727      0.53575902
    C      0.87327781      0.09158599     -0.28189170
    H     -1.59216127     -0.60746755     -0.88313990
    H     -0.45964276      0.89760760      1.21397314
    H     -0.43189566     -0.86408401      1.15240131
    H      0.91394342      1.00150139     -0.88388758
    H      1.74978319      0.06906035      0.37154813
    H      0.94290481     -0.76715507     -0.95681413
$end
   
$rem
mem_static = 200
mem_total  = 7500
exchange = b3lyp
basis = G3Large
max_scf_cycles = 50
scf_convergence = 7
symmetry = false
xc_grid = 000075000302
$end
