$molecule
0    1
    O     -0.19406076      0.79739274     -1.24754489
    C      0.26247187     -0.38598231     -0.58046429
    C     -0.32117133     -0.35455087      0.81734976
    O      0.13359164      0.76868704      1.55861148
    H      0.31228524      0.92263345     -2.05616499
    H     -0.04828893      1.54811306      1.01818574
    H     -0.07634356     -1.28870353     -1.10504151
    H      1.35679588     -0.39913551     -0.52010439
    H     -0.00816618     -1.24448358      1.36656177
    H     -1.41711385     -0.36397049      0.74861133
$end
   
$rem
mem_static = 200
mem_total  = 7500
exchange = b3lyp
basis = G3Large
max_scf_cycles = 50
scf_convergence = 7
symmetry = false
xc_grid = 000075000302
$end
