$molecule
0    1
    C      0.00000000     -1.27422369     -0.58431032
    C      0.00000000      0.00000000      0.21760939
    C      0.00000000      1.27422369     -0.58431032
    C      0.00000000      0.00000000      1.54963654
    H      0.00000000     -2.15656070      0.05667758
    H      0.87802311     -1.32431779     -1.23710727
    H     -0.87802311     -1.32431779     -1.23710727
    H      0.00000000      2.15656070      0.05667758
    H      0.87802311      1.32431779     -1.23710727
    H     -0.87802311      1.32431779     -1.23710727
    H      0.00000000     -0.92303401      2.11822432
    H      0.00000000      0.92303401      2.11822432
$end
   
$rem
mem_static = 200
mem_total  = 7500
exchange = b3lyp
basis = G3Large
max_scf_cycles = 50
scf_convergence = 7
symmetry = false
xc_grid = 000075000302
$end
