$molecule
0    1
    C     -1.18455443      0.05411984      0.66525467
    C     -1.18455443      0.05411984     -0.66525467
    C      0.20700827     -0.09163790     -1.23405591
    C      1.11686391      0.14001714      0.00000000
    C      0.20700827     -0.09163790      1.23405591
    H     -2.07035274      0.11036236      1.28679493
    H     -2.07035274      0.11036236     -1.28679493
    H      0.41261707      0.61549628     -2.04247272
    H      0.34320145     -1.09425688     -1.65862801
    H      1.99856182     -0.50229069      0.00000000
    H      1.46873504      1.17410613      0.00000000
    H      0.41261707      0.61549628      2.04247272
    H      0.34320145     -1.09425688      1.65862801
$end
   
$rem
mem_static = 200
mem_total  = 7500
exchange = b3lyp
basis = G3Large
max_scf_cycles = 50
scf_convergence = 7
symmetry = false
xc_grid = 000075000302
$end
