$molecule
0    1
    C      0.00000000      0.00000000      0.48302500
    N      0.00000000      0.00000000     -0.93724998
    C      0.00000000      0.00000000     -2.10375588
    H      0.51295537     -0.88846477      0.85266029
    H      0.51295537      0.88846477      0.85266029
    H     -1.02591075      0.00000000      0.85266029
$end
   
$rem
mem_static = 200
mem_total  = 7500
exchange = b3lyp
basis = G3Large
max_scf_cycles = 50
scf_convergence = 7
symmetry = false
xc_grid = 000075000302
$end
