$molecule
0    1
    C     -0.10410470      0.05612266     -1.21675704
    N      0.68933111      0.15581991      0.00000000
    C     -0.10410470      0.05612266      1.21675704
    H      0.55343651      0.07298820     -2.08786345
    H     -0.76965382      0.92069824     -1.29001709
    H     -0.73054614     -0.85098058     -1.27216210
    H      1.41240519     -0.55347694      0.00000000
    H     -0.76965382      0.92069824      1.29001709
    H      0.55343651      0.07298820      2.08786345
    H     -0.73054614     -0.85098058      1.27216210
$end
   
$rem
mem_static = 200
mem_total  = 7500
exchange = b3lyp
basis = G3Large
max_scf_cycles = 50
scf_convergence = 7
symmetry = false
xc_grid = 000075000302
$end
