$molecule
0    1
    C      0.00000000     -0.73287988      0.04993687
    C      0.00000000      0.73287988      0.04993687
    O      0.00000000      0.00000000     -1.17875427
    H     -0.91904523     -1.26905640      0.26972013
    H      0.91904523     -1.26905640      0.26972013
    H     -0.91904523      1.26905640      0.26972013
    H      0.91904523      1.26905640      0.26972013
$end
   
$rem
mem_static = 200
mem_total  = 7500
exchange = b3lyp
basis = G3Large
max_scf_cycles = 50
scf_convergence = 7
symmetry = false
xc_grid = 000075000302
$end
