$molecule
0    1
    C     -0.14670840      1.74759925     -0.00162118
    O      0.53179440      0.50790811      0.02613614
    O     -0.53179440     -0.50790811      0.02613614
    C      0.14670840     -1.74759925     -0.00162118
    H      0.64675036      2.49676125      0.00349271
    H     -0.74787425      1.85229382     -0.90980658
    H     -0.77962222      1.87481881      0.88179891
    H     -0.64675036     -2.49676125      0.00349271
    H      0.74787425     -1.85229382     -0.90980658
    H      0.77962222     -1.87481881      0.88179891
$end
   
$rem
mem_static = 200
mem_total  = 7500
exchange = b3lyp
basis = G3Large
max_scf_cycles = 50
scf_convergence = 7
symmetry = false
xc_grid = 000075000302
$end
