$molecule
0    1
    O      0.00000000      0.00000000     -1.35233155
    C      0.00000000      1.03900495     -0.34026682
    C      0.00000000      0.00000000      0.79744878
    C      0.00000000     -1.03900495     -0.34026682
    H      0.88804984      1.67350998     -0.40542295
    H     -0.88804984      1.67350998     -0.40542295
    H     -0.88675996      0.00000000      1.42855411
    H      0.88675996      0.00000000      1.42855411
    H      0.88804984     -1.67350998     -0.40542295
    H     -0.88804984     -1.67350998     -0.40542295
$end
   
$rem
mem_static = 200
mem_total  = 7500
exchange = b3lyp
basis = G3Large
max_scf_cycles = 50
scf_convergence = 7
symmetry = false
xc_grid = 000075000302
$end
