$molecule
0    1
    C     -1.81293119     -0.13472916      0.59783110
    C     -1.44292989      0.28824262     -0.61051720
    O     -0.24964847      0.15469546     -1.23992650
    C      0.82118519     -0.51912111     -0.56312378
    C      1.57440094      0.39525874      0.39186409
    H     -1.16004275     -0.65373246      1.28495243
    H     -2.82745357      0.04878513      0.92159714
    H     -2.13367765      0.81439673     -1.25966566
    H      0.43288034     -1.40476797     -0.05102208
    H      1.47932352     -0.85742709     -1.36407474
    H      0.93292924      0.75983055      1.19465742
    H      2.40942254     -0.14795051      0.84186910
    H      1.97654174      1.25651907     -0.14444132
$end
   
$rem
mem_static = 200
mem_total  = 7500
exchange = b3lyp
basis = G3Large
max_scf_cycles = 50
scf_convergence = 7
symmetry = false
xc_grid = 000075000302
$end
