$molecule
0    1
    C     -1.38876581     -0.62758581      1.25971449
    C     -0.72734956     -0.03145072      0.00000000
    C      0.73679247     -0.49042806      0.00000000
    O      1.62197234      0.52927905      0.00000000
    C      3.01247899      0.15578469      0.00000000
    C     -0.87812267      1.49559198      0.00000000
    C     -1.38876581     -0.62758581     -1.25971449
    O      1.07910819     -1.64895960      0.00000000
    H     -0.94197402     -0.22223462      2.17099019
    H     -2.45298770     -0.38075289      1.26841960
    H     -1.28221416     -1.71240451      1.27869838
    H      3.56455141      1.09223936      0.00000000
    H      3.25112002     -0.43061720     -0.88736316
    H      3.25112002     -0.43061720      0.88736316
    H     -0.41981828      1.94585829      0.88148444
    H     -1.94015126      1.75341677      0.00000000
    H     -0.41981828      1.94585829     -0.88148444
    H     -1.28221416     -1.71240451     -1.27869838
    H     -0.94197402     -0.22223462     -2.17099019
    H     -2.45298770     -0.38075289     -1.26841960
$end
   
$rem
mem_static = 200
mem_total  = 7500
exchange = b3lyp
basis = G3Large
max_scf_cycles = 50
scf_convergence = 7
symmetry = false
xc_grid = 000075000302
$end
