$molecule
0    1
    C     -0.20012703     -0.42564681      0.00000000
    C     -1.42059786      0.07333445     -0.74919276
    C     -1.42059786      0.07333445      0.74919276
    C      1.03793437      0.37409922      0.00000000
    C      2.27399243     -0.11914084      0.00000000
    H     -0.05027893     -1.49988128      0.00000000
    H     -1.33653947      1.02452395     -1.26028341
    H     -2.02534344     -0.66014242     -1.26720107
    H     -2.02534344     -0.66014242      1.26720107
    H     -1.33653947      1.02452395      1.26028341
    H      0.90052902      1.45441912      0.00000000
    H      2.46109513     -1.18777785      0.00000000
    H      3.14181655      0.52849648      0.00000000
$end
   
$rem
mem_static = 200
mem_total  = 7500
exchange = b3lyp
basis = G3Large
max_scf_cycles = 50
scf_convergence = 7
symmetry = false
xc_grid = 000075000302
$end
