lattice_vector 1.9097 -3.3076 0.0000
lattice_vector 1.9097 3.3076 0.0000
lattice_vector 0.0000 0.0000 6.2369

atom   1.9097 1.1025 0.0000 Si
atom   1.9097 -1.1025 3.1185 Si
atom   1.9097 1.1025 2.3388 Si
atom   1.9097 -1.1025 5.4573 Si
