$molecule
0    1
    O     -2.97821428     -0.09986234     -0.00874172
    H     -3.30143673      0.80186438     -0.00000000
    H     -2.01196375     -0.00000000     -0.00000000
$end
   
$rem
mem_static = 200
mem_total  = 7500
exchange = b3lyp
basis = G3Large
max_scf_cycles = 50
scf_convergence = 7
symmetry = false
xc_grid = 000075000302
$end
