$molecule
0    1
    O     -2.84959633     -0.21968068     -0.00848481
    H     -3.28354465      0.63437239      0.00000000
    H     -1.90480675     -0.00000000      0.00000000
$end
   
$rem
mem_static = 200
mem_total  = 7500
exchange = b3lyp
basis = G3Large
max_scf_cycles = 50
scf_convergence = 7
symmetry = false
xc_grid = 000075000302
$end
