$molecule
0    1
    O      0.96959574      0.08007877      0.00285958
    H      0.00000000      0.00000000      0.00000000
    C      1.26291710      1.45833936     -0.00000000
    H      2.34473752      1.56812610      0.00184960
    H      0.87845524      1.97023329     -0.88746125
    H      0.87495755      1.97461483      0.88338715
$end
   
$rem
mem_static = 200
mem_total  = 7500
exchange = b3lyp
basis = G3Large
max_scf_cycles = 50
scf_convergence = 7
symmetry = false
xc_grid = 000075000302
$end
