$molecule
0    1
    N      0.80346365      0.61899393     -0.02068077
    H      0.00000000      0.00000000      0.00000000
    H      1.61267343      0.03073904     -0.16961552
    C      0.65610014      1.53348186     -1.15184025
    H      1.51762555      2.19726770     -1.19830741
    H      0.54693160      1.05136841     -2.12789783
    H     -0.22288869      2.15679501     -0.99432490
$end
   
$rem
mem_static = 200
mem_total  = 7500
exchange = b3lyp
basis = G3Large
max_scf_cycles = 50
scf_convergence = 7
symmetry = false
xc_grid = 000075000302
$end
