$molecule
0    1
    N     -3.04473371      0.61899393      0.02068077
    H     -2.24127006      0.00000000     -0.00000000
    H     -3.85394350      0.03073904      0.16961552
    C     -2.89737020      1.53348186      1.15184025
    H     -3.75889561      2.19726770      1.19830741
    H     -2.78820166      1.05136841      2.12789783
    H     -2.01838137      2.15679501      0.99432490
$end
   
$rem
mem_static = 200
mem_total  = 7500
exchange = b3lyp
basis = G3Large
max_scf_cycles = 50
scf_convergence = 7
symmetry = false
xc_grid = 000075000302
$end
