$molecule
0    1
    N      0.00000000      0.00000000      0.00000000
    H      0.44849878     -0.39474771     -0.81664410
    H      0.47954625     -0.39863242      0.79681494
    C      0.17512360      1.45733642      0.00000000
    H     -0.30700937      1.87024102      0.88214678
    H      1.21510873      1.78918105     -0.01491244
    H     -0.33273582      1.87290804     -0.86644120
$end
   
$rem
mem_static = 200
mem_total  = 7500
exchange = b3lyp
basis = G3Large
max_scf_cycles = 50
scf_convergence = 7
symmetry = false
xc_grid = 000075000302
$end
