$molecule
0    1
    C      0.82164812      2.33052923      0.50294292
    H      1.28894352      2.73639781      1.39672934
    H     -0.20073166      2.03634442      0.72766927
    H      0.82039497      3.11708805     -0.24929677
    C      1.67020801      1.18311120     -0.00000000
    O      2.86949142      1.31936136     -0.22108490
    N      0.99502460      0.02123926     -0.18420489
    H      0.00000000      0.00000000      0.00000000
    C      1.65793020     -1.17287359     -0.65340968
    H      2.69959418     -0.92096032     -0.82783215
    H      1.60299229     -1.97099111      0.08573460
    H      1.21648966     -1.52921881     -1.58371976
$end
   
$rem
mem_static = 200
mem_total  = 7500
exchange = b3lyp
basis = G3Large
max_scf_cycles = 50
scf_convergence = 7
symmetry = false
xc_grid = 000075000302
$end
