$molecule
0    1
    N     -2.44400555      1.08072150      0.00005584
    H     -1.41964377      1.18540740      0.00088164
    C     -2.94432586     -0.21025887     -0.00086656
    O     -2.18983083     -1.18540740     -0.00088164
    C     -4.38802325     -0.30742462     -0.00199598
    H     -4.84389336     -1.28197198     -0.00278180
    C     -5.12620269      0.82211419     -0.00207068
    H     -6.20604785      0.81259997     -0.00289917
    N     -4.54241348      2.05548389     -0.00112400
    H     -5.09592037      2.89628763     -0.00120366
    C     -3.16777883      2.25890560      0.00000000
    O     -2.67309570      3.36616472      0.00081898
$end
   
$rem
mem_static = 200
mem_total  = 7500
exchange = b3lyp
basis = G3Large
max_scf_cycles = 50
scf_convergence = 7
symmetry = false
xc_grid = 000075000302
$end
