$molecule
0    1
    O      0.96929624      0.00034721     -0.05108578
    H      1.24229235     -0.00608079      0.86730482
    H      0.00000000     -0.00000000      0.00000000
$end
   
$rem
mem_static = 200
mem_total  = 7500
exchange = b3lyp
basis = G3Large
max_scf_cycles = 50
scf_convergence = 7
symmetry = false
xc_grid = 000075000302
$end
