$molecule
0    1
    O     -2.92067615      0.08801830     -0.00148693
    H     -1.95279063     -0.00000000     -0.00000000
    C     -3.19555865      1.47118595      0.00000000
    H     -4.27591009      1.59407331     -0.00309808
    H     -2.80365651      1.97760392      0.88682020
    H     -2.79826081      1.98053743     -0.88273782
$end
   
$rem
mem_static = 200
mem_total  = 7500
exchange = b3lyp
basis = G3Large
max_scf_cycles = 50
scf_convergence = 7
symmetry = false
xc_grid = 000075000302
$end
