$molecule
0    1
    C      1.12174674      0.11101601     -0.00178048
    O      0.48869759      1.16920731      0.00000000
    N      0.53044559     -1.09756879     -0.00089306
    H     -0.48869759     -1.16920731     -0.00000000
    H      1.08676866     -1.93010664     -0.00321407
    C      2.63129029      0.12091542     -0.00640868
    H      2.96979338      0.65326086     -0.89179485
    H      3.06995933     -0.87338515      0.00510343
    H      2.97513710      0.67662015      0.86224954
$end
   
$rem
mem_static = 200
mem_total  = 7500
exchange = b3lyp
basis = G3Large
max_scf_cycles = 50
scf_convergence = 7
symmetry = false
xc_grid = 000075000302
$end
