$molecule
0    1
    C     -2.92871784      0.15328925     -0.00451777
    O     -2.24978567      1.18524043      0.03140120
    N     -2.38702576     -1.07550946     -0.03773223
    H     -1.37413971     -1.18524043     -0.03140120
    H     -2.97440639     -1.88618679     -0.06629227
    C     -4.43329625      0.23105964     -0.00914343
    H     -4.75515477      0.72823300      0.90259774
    H     -4.91397645     -0.74089083     -0.07803337
    H     -4.74391712      0.84883291     -0.84764462
$end
   
$rem
mem_static = 200
mem_total  = 7500
exchange = b3lyp
basis = G3Large
max_scf_cycles = 50
scf_convergence = 7
symmetry = false
xc_grid = 000075000302
$end
