$molecule
0    1
    N     -3.54311291     -0.46295546      0.82137178
    H     -3.48528043     -0.97419805      1.69176847
    C     -3.86730408      0.89771750      0.92697886
    O     -4.06792693      1.40288804      2.01795594
    C     -3.92238451      1.57648789     -0.35609276
    H     -4.16918668      2.62384780     -0.37730821
    C     -3.66328410      0.89030199     -1.48790978
    H     -3.68945659      1.35045266     -2.46456299
    N     -3.34554330     -0.44139781     -1.47115029
    H     -3.13349454     -0.93712848     -2.32114797
    C     -3.25598301     -1.19360471     -0.31245878
    O     -2.95327941     -2.37082270     -0.30745205
$end
   
$rem
mem_static = 200
mem_total  = 7500
exchange = b3lyp
basis = G3Large
max_scf_cycles = 50
scf_convergence = 7
symmetry = false
xc_grid = 000075000302
$end
