$molecule
0    1
    N     -0.22313579     -0.91522532     -0.03030527
    H     -0.47273891     -1.89500596     -0.03735843
    C     -0.11192331     -0.29900472     -1.28549724
    O     -0.30893558     -0.93517443     -2.30628785
    C      0.24221014      1.10746513     -1.20516116
    H      0.35265105      1.66639768     -2.11823395
    C      0.42832095      1.68309417      0.00000000
    H      0.69190402      2.72429524      0.11134963
    N      0.28965027      0.98103344      1.16805725
    H      0.41864253      1.42495520      2.06203204
    C     -0.05374820     -0.35955699      1.22068719
    O     -0.19068883     -0.96991656      2.26248098
$end
   
$rem
mem_static = 200
mem_total  = 7500
exchange = b3lyp
basis = G3Large
max_scf_cycles = 50
scf_convergence = 7
symmetry = false
xc_grid = 000075000302
$end
