$molecule
0    1
    C     -0.00004119      0.66618869      0.00000000
    H     -0.79823181      1.22838153      0.46330871
    H      0.79903628      1.22811183     -0.46211415
    C     -0.00007040     -0.66618553     -0.00015822
    H     -0.79836414     -1.22842253      0.46308389
    H      0.79888932     -1.22810848     -0.46239310
$end
   
$rem
mem_static = 200
mem_total  = 7500
exchange = b3lyp
basis = G3Large
max_scf_cycles = 50
scf_convergence = 7
symmetry = false
xc_grid = 000075000302
$end
