$molecule
0    1
    C     -0.06741017      1.20559689     -0.69663791
    H     -0.12002894      2.14077705     -1.23726246
    C     -0.01897860      1.20723230      0.69663791
    H     -0.03533497      2.14361220      1.23739369
    C      0.04820086      0.00172416      1.39318798
    H      0.08164538      0.00275052      2.47397728
    C      0.06903383     -1.20529154      0.69656340
    H      0.12293693     -2.14010362      1.23785468
    C      0.01942128     -1.20734522     -0.69653737
    H      0.03427096     -2.14370078     -1.23763026
    C     -0.04966067     -0.00189515     -1.39325278
    H     -0.09071671     -0.00359080     -2.47387087
$end
   
$rem
mem_static = 200
mem_total  = 7500
exchange = b3lyp
basis = G3Large
max_scf_cycles = 50
scf_convergence = 7
symmetry = false
xc_grid = 000075000302
$end
