$molecule
0    1
    C      0.27156556     -0.65835298      1.19841009
    H      0.48201216     -1.16919652      2.12805610
    C      0.25794654     -1.37028665     -0.00015124
    H      0.45453628     -2.43353773     -0.00030994
    C     -0.01462116     -0.71181510     -1.19861773
    H     -0.03072268     -1.26496445     -2.12752047
    C     -0.27133916      0.65835320     -1.19825725
    H     -0.48307139      1.16858150     -2.12791611
    C     -0.25648699      1.37038204      0.00011574
    H     -0.45606134      2.43318631      0.00000000
    C      0.01369685      0.71188772      1.19844696
    H      0.02423115      1.26392618      2.12832702
$end
   
$rem
mem_static = 200
mem_total  = 7500
exchange = b3lyp
basis = G3Large
max_scf_cycles = 50
scf_convergence = 7
symmetry = false
xc_grid = 000075000302
$end
