$molecule
0    1
    C     -0.05464924      1.32579990      0.42928166
    H     -0.09694133      2.35376309      0.76230218
    C      0.07418272      0.29605065      1.36071003
    H      0.12912429      0.52567993      2.41581833
    C      0.13068062     -1.02909552      0.93154141
    H      0.23212379     -1.82728229      1.65392742
    C      0.05530376     -1.32566962     -0.42884995
    H      0.09954755     -2.35364179     -0.76166730
    C     -0.07605799     -0.29671210     -1.36083960
    H     -0.13522906     -0.52635683     -2.41585081
    C     -0.12957570      1.02962701     -0.93180178
    H     -0.22724506      1.82783409     -1.65502758
$end
   
$rem
mem_static = 200
mem_total  = 7500
exchange = b3lyp
basis = G3Large
max_scf_cycles = 50
scf_convergence = 7
symmetry = false
xc_grid = 000075000302
$end
