$molecule
0    1
    N      0.47505601      0.91597414     -0.00259397
    C      0.49227527     -0.42663190      0.00755715
    H     -0.47505601     -0.91597414      0.00259397
    C      1.66636020     -1.17618933      0.02408888
    H      1.61503064     -2.25565349      0.03159854
    C      2.88897092     -0.51344265      0.03074710
    H      3.81919662     -1.06453641      0.04367307
    C      2.88459901      0.87747129      0.02042274
    H      3.80648235      1.44152430      0.02504168
    C      1.66076482      1.54062493      0.00389091
    H      1.62698643      2.62326092     -0.00450705
$end
   
$rem
mem_static = 200
mem_total  = 7500
exchange = b3lyp
basis = G3Large
max_scf_cycles = 50
scf_convergence = 7
symmetry = false
xc_grid = 000075000302
$end
