$molecule
0    1
    N      0.75247021     -0.16639162      0.65848319
    H      0.00000000      0.00000000     -0.00000000
    H      1.58067696      0.24641005      0.24947096
    C      0.43954574      0.51830779      1.91164348
    H      1.24723413      0.35710286      2.62338530
    H      0.27625899      1.59745418      1.82575053
    H     -0.46055090      0.08143731      2.34131497
$end
   
$rem
mem_static = 200
mem_total  = 7500
exchange = b3lyp
basis = G3Large
max_scf_cycles = 50
scf_convergence = 7
symmetry = false
xc_grid = 000075000302
$end
