#p b3lyp 6-311+g(3df,2p) scf=tight nosymm

13dip

0    1
    C      0.00000000      1.19554785      0.15915367
    C      0.00000000      0.00000000     -0.80952337
    C      0.00000000     -1.19554785      0.15915367
    N      0.00000000     -0.61476092      1.53577990
    N      0.00000000      0.61476092      1.53577990
    H     -0.87901439      1.83826274      0.08056040
    H      0.87901439      1.83826274      0.08056040
    H     -0.88012160      0.00000000     -1.45129269
    H      0.88012160      0.00000000     -1.45129269
    H      0.87901439     -1.83826274      0.08056040
    H     -0.87901439     -1.83826274      0.08056040
 
 
 
