#p b3lyp 6-311+g(3df,2p) scf=tight nosymm

be4

0    1
   Be      0.72790380     -0.72790380      0.72790380
   Be     -0.72790380      0.72790380      0.72790380
   Be     -0.72790380     -0.72790380     -0.72790380
   Be      0.72790380      0.72790380     -0.72790380
 
 
 
