#p b3lyp 6-311+g(3df,2p) scf=tight nosymm

c20cage

0    1
    C      1.96656716      0.00000000     -0.69986508
    C      1.17802150      1.18009924     -1.11958236
    C      0.00000000      0.71986250     -1.81108560
    C      0.00000000     -0.71986250     -1.81108560
    C      1.17802150     -1.18009924     -1.11958236
    C     -1.17802150      1.18009924     -1.11958236
    C     -1.96656716      0.00000000     -0.69986508
    C     -1.17802150     -1.18009924     -1.11958236
    C     -0.76372598      1.95149037      0.00000000
    C     -1.17802150      1.18009924      1.11958236
    C     -1.96656716      0.00000000      0.69986508
    C     -0.76372598     -1.95149037      0.00000000
    C     -1.17802150     -1.18009924      1.11958236
    C      0.00000000     -0.71986250      1.81108560
    C      0.00000000      0.71986250      1.81108560
    C      0.76372598      1.95149037      0.00000000
    C      1.17802150      1.18009924      1.11958236
    C      0.76372598     -1.95149037      0.00000000
    C      1.17802150     -1.18009924      1.11958236
    C      1.96656716      0.00000000      0.69986508
 
 
 
