#p b3lyp 6-311+g(3df,2p) scf=tight nosymm

ISO_P35

0    1
    C      0.15079422     -0.12156205      0.00000000
    C      0.65037709     -0.88500569      1.18656543
    C      0.14459091     -2.08850761      1.50773747
    C     -0.74666531     -2.84877377      0.67967664
    C     -0.74666531     -2.84877377     -0.67967664
    C      0.14459091     -2.08850761     -1.50773747
    C      0.65037709     -0.88500569     -1.18656543
    C      0.58371389      1.34672124      0.00000000
    C      0.08302590      2.13769890      1.17015547
    C     -0.58055282      3.21665851      0.73028842
    C     -0.58055282      3.21665851     -0.73028842
    C      0.08302590      2.13769890     -1.17015547
    H     -0.94619055     -0.16518005      0.00000000
    H      1.42825297     -0.44227672      1.80322296
    H      0.44991915     -2.54737768      2.44433996
    H     -1.36517088     -3.59102555      1.17639255
    H     -1.36517088     -3.59102555     -1.17639255
    H      0.44991915     -2.54737768     -2.44433996
    H      1.42825297     -0.44227672     -1.80322296
    H      1.68643752      1.37369030      0.00000000
    H      0.24650300      1.85787203      2.20185951
    H     -1.04765755      3.97390286      1.34685027
    H     -1.04765755      3.97390286     -1.34685027
    H      0.24650300      1.85787203     -2.20185951
 
 
 
