#p b3lyp 6-311+g(3df,2p) scf=tight nosymm

omcb

0    1
    C     -0.78968808      0.78968808     -0.09340252
    C     -0.78968808     -0.78968808      0.09340252
    C      0.78968808     -0.78968808     -0.09340252
    C      0.78968808      0.78968808      0.09340252
    C     -1.60758266      1.60758266      0.91942771
    C     -1.24698410      1.24698410     -1.49106556
    C     -1.24698410     -1.24698410      1.49106556
    C     -1.60758266     -1.60758266     -0.91942771
    C      1.24698410     -1.24698410     -1.49106556
    C      1.60758266     -1.60758266      0.91942771
    C      1.24698410      1.24698410      1.49106556
    C      1.60758266      1.60758266     -0.91942771
    H     -1.36727089      1.36727089      1.95537926
    H     -1.42692729      2.67788025      0.76935426
    H     -2.67788025      1.42692729      0.76935426
    H     -0.73173639      0.73173639     -2.30167386
    H     -2.32046139      1.06760838     -1.60858609
    H     -1.06760838      2.32046139     -1.60858609
    H     -0.73173639     -0.73173639      2.30167386
    H     -2.32046139     -1.06760838      1.60858609
    H     -1.06760838     -2.32046139      1.60858609
    H     -1.36727089     -1.36727089     -1.95537926
    H     -1.42692729     -2.67788025     -0.76935426
    H     -2.67788025     -1.42692729     -0.76935426
    H      0.73173639     -0.73173639     -2.30167386
    H      2.32046139     -1.06760838     -1.60858609
    H      1.06760838     -2.32046139     -1.60858609
    H      1.36727089     -1.36727089      1.95537926
    H      1.42692729     -2.67788025      0.76935426
    H      2.67788025     -1.42692729      0.76935426
    H      0.73173639      0.73173639      2.30167386
    H      2.32046139      1.06760838      1.60858609
    H      1.06760838      2.32046139      1.60858609
    H      1.36727089      1.36727089     -1.95537926
    H      1.42692729      2.67788025     -0.76935426
    H      2.67788025      1.42692729     -0.76935426
 
 
 
