#p b3lyp 6-311+g(3df,2p) scf=tight nosymm

ant

0    1
    C     -1.40459612      0.00000000      0.00000000
    C      1.40459612      0.00000000      0.00000000
    C     -0.72052509     -1.22026697      0.00000000
    C      0.72052509      1.22026697      0.00000000
    C     -0.72052509      1.22026697      0.00000000
    C      0.72052509     -1.22026697      0.00000000
    H     -2.48877708      0.00000000      0.00000000
    H      2.48877708      0.00000000      0.00000000
    C     -1.40537496     -2.46718066      0.00000000
    C      1.40537496      2.46718066      0.00000000
    C     -1.40537496      2.46718066      0.00000000
    C      1.40537496     -2.46718066      0.00000000
    C     -0.70966568     -3.65054539      0.00000000
    C      0.70966568      3.65054539      0.00000000
    C     -0.70966568      3.65054539      0.00000000
    C      0.70966568     -3.65054539      0.00000000
    H     -2.48794579     -2.46624424      0.00000000
    H      2.48794579      2.46624424      0.00000000
    H     -2.48794579      2.46624424      0.00000000
    H      2.48794579     -2.46624424      0.00000000
    H     -1.24450477     -4.58997014      0.00000000
    H      1.24450477      4.58997014      0.00000000
    H     -1.24450477      4.58997014      0.00000000
    H      1.24450477     -4.58997014      0.00000000
 
 
 
