#p b3lyp 6-311+g(3df,2p) scf=tight nosymm

F14f

0    1
    C     -2.22432565     -0.25324963      0.16701518
    C     -1.63652986      0.45278440      1.39965790
    C     -1.53880874     -0.47838282      2.62634989
    C     -0.76411318      0.12290660      3.82586475
    C      0.76411318     -0.12290660      3.82586475
    C      1.53880874      0.47838282      2.62634989
    C      1.63652986     -0.45278440      1.39965790
    C      2.22432565      0.25324963      0.16701518
    C      2.32227317     -0.65940409     -1.06747970
    C      2.94514428      0.04347027     -2.28759529
    C      3.05610962     -0.87974797     -3.51611733
    C     -2.32227317      0.65940409     -1.06747970
    C     -2.94514428     -0.04347027     -2.28759529
    C     -3.05610962      0.87974797     -3.51611733
    H     -3.22590500     -0.64629916      0.41081602
    H     -1.59723288     -1.12753583     -0.07769248
    H     -0.64680561      0.85259048      1.14200001
    H     -2.26241663      1.32217389      1.66079488
    H     -1.06511424     -1.42811320      2.32893805
    H     -2.56348838     -0.73260556      2.94040694
    H     -0.95089622      1.20975344      3.86432086
    H     -1.16836052     -0.29518389      4.76092256
    H      0.95089622     -1.20975344      3.86432086
    H      1.16836052      0.29518389      4.76092256
    H      1.06511424      1.42811320      2.32893805
    H      2.56348838      0.73260556      2.94040694
    H      0.64680561     -0.85259048      1.14200001
    H      2.26241663     -1.32217389      1.66079488
    H      1.59723288      1.12753583     -0.07769248
    H      3.22590500      0.64629916      0.41081602
    H      1.31497504     -1.02561948     -1.32984728
    H      2.92411216     -1.54940157     -0.81630158
    H      2.34054307      0.92976997     -2.54037119
    H      3.94551009      0.41539151     -2.01128383
    H      2.06244690     -1.23861051     -3.82589737
    H      3.51324432     -0.36100036     -4.37172070
    H      3.67363087     -1.76072220     -3.28278030
    H     -1.31497504      1.02561948     -1.32984728
    H     -2.92411216      1.54940157     -0.81630158
    H     -2.34054307     -0.92976997     -2.54037119
    H     -3.94551009     -0.41539151     -2.01128383
    H     -2.06244690      1.23861051     -3.82589737
    H     -3.51324432      0.36100036     -4.37172070
    H     -3.67363087      1.76072220     -3.28278030
 
 
 
