#p b3lyp 6-311+g(3df,2p) scf=tight nosymm

octane1

0    1
    C      0.00000000      0.00000000     -0.78216590
    C      0.00000000      0.00000000      0.78216590
    C      1.13685887     -0.86573051     -1.33679646
    C      0.18131518      1.41741391     -1.33679646
    C     -1.31817404     -0.55168341     -1.33679646
    C      1.13685887      0.86573051      1.33679646
    C      0.18131518     -1.41741391      1.33679646
    C     -1.31817404      0.55168341      1.33679646
    H      2.10137738     -0.60632396     -0.89602498
    H      0.95640307     -1.92812758     -1.16563603
    H      1.21642444     -0.71505911     -2.41638060
    H      1.19160593      1.79233315     -1.16563603
    H      0.01104713      1.41098402     -2.41638060
    H     -0.52559674      2.12300818     -0.89602498
    H     -1.57578064     -1.51668421     -0.89602498
    H     -2.14800900      0.13579444     -1.16563603
    H     -1.22747158     -0.69592492     -2.41638060
    H      2.10137738      0.60632396      0.89602498
    H      0.95640307      1.92812758      1.16563603
    H      1.21642444      0.71505911      2.41638060
    H      1.19160593     -1.79233315      1.16563603
    H      0.01104713     -1.41098402      2.41638060
    H     -0.52559674     -2.12300818      0.89602498
    H     -1.57578064      1.51668421      0.89602498
    H     -2.14800900     -0.13579444      1.16563603
    H     -1.22747158      0.69592492      2.41638060
 
 
 
