#p b3lyp 6-311+g(3df,2p) scf=tight nosymm

octane2

0    1
    C     -4.46047030     -0.26821538      0.00000000
    C     -3.16592156      0.53661534      0.00000000
    C     -1.92395200     -0.34672405      0.00000000
    C     -0.62045617      0.44225032      0.00000000
    C      0.62045617     -0.44225032      0.00000000
    C      1.92395200      0.34672405      0.00000000
    C      3.16592156     -0.53661534      0.00000000
    C      4.46047030      0.26821538      0.00000000
    H     -5.33699059      0.38095567      0.00000000
    H     -4.51726177     -0.90885521     -0.88191534
    H     -4.51726177     -0.90885521      0.88191534
    H     -3.13792956      1.18881399      0.87766300
    H     -3.13792956      1.18881399     -0.87766300
    H     -1.94755983     -1.00029523      0.87847082
    H     -1.94755983     -1.00029523     -0.87847082
    H     -0.59543908      1.09547840      0.87856077
    H     -0.59543908      1.09547840     -0.87856077
    H      0.59543908     -1.09547840      0.87856077
    H      0.59543908     -1.09547840     -0.87856077
    H      1.94755983      1.00029523      0.87847082
    H      1.94755983      1.00029523     -0.87847082
    H      3.13792956     -1.18881399      0.87766300
    H      3.13792956     -1.18881399     -0.87766300
    H      4.51726177      0.90885521      0.88191534
    H      5.33699059     -0.38095567      0.00000000
    H      4.51726177      0.90885521     -0.88191534
 
 
 
