#p b3lyp 6-311+g(3df,2p) scf=tight nosymm

pxylene

0    1
    C      0.00000000      1.42176062      0.00687457
    C      0.00000000      0.69664173     -1.19545220
    C      0.00000000     -0.69664173     -1.19545220
    C      0.00000000     -1.42176062      0.00687457
    C      0.00000000     -0.69921043      1.20456479
    C      0.00000000      0.69921043      1.20456479
    C      0.00000000      2.92839527     -0.00087572
    C      0.00000000     -2.92839527     -0.00087572
    H      0.00000000      1.23615379     -2.14539246
    H      0.00000000     -1.23615379     -2.14539246
    H      0.00000000     -1.24021740      2.15334657
    H      0.00000000      1.24021740      2.15334657
    H      0.00000000      3.32970749      1.02169801
    H     -0.88559031      3.32322048     -0.52238177
    H      0.88559031      3.32322048     -0.52238177
    H      0.00000000     -3.32970749      1.02169801
    H     -0.88559031     -3.32322048     -0.52238177
    H      0.88559031     -3.32322048     -0.52238177
 
 
 
