$molecule
0    2
    H     -2.49552599     -1.18926959      0.73538431
    H      2.56052640      0.20388641      1.03369561
   Al     -1.77352441      0.22728523      0.48866202
    B      1.39969513      0.16071572      0.83938753
   Be      0.17828473      0.12679367     -0.91236192
    H      1.26917739      0.10682309     -1.72030079
    H     -1.25186098      0.22798346     -1.23707845
    N      0.11322774      0.13578201      0.77261167
$end
   
$rem
mem_static = 200
mem_total  = 7500
exchange = b3lyp
basis = G3Large
max_scf_cycles = 50
scf_convergence = 7
symmetry = false
xc_grid = 000075000302
$end
