$molecule
0    2
    H     -0.01169625      2.20673540      0.22931855
   Be      0.32851592      0.73531132      0.05522398
    H     -0.01878954      2.05502698     -0.61371808
    H      1.50529270      0.09850692      0.16278297
    H     -1.05503486      0.19897422     -0.26860419
    H     -1.04719516      0.35351914      0.57450858
    H     -0.07716382     -3.12447172     -0.05819480
    H      0.37607101     -2.52360226     -0.08131701
$end
   
$rem
mem_static = 200
mem_total  = 7500
exchange = b3lyp
basis = G3Large
max_scf_cycles = 50
scf_convergence = 7
symmetry = false
xc_grid = 000075000302
$end
