$molecule
0    1
    H     -0.13680772      2.04038801      0.68081337
    H      1.20128196     -2.07665723     -0.02351524
    O      0.00413556      1.37248380     -0.01114997
    H      1.75474849     -2.26199179      0.45321088
    H     -1.61095911     -0.15662504      1.09869119
   Be     -0.92861332     -0.05986478     -0.08545190
    H      0.41622029      1.76642768     -0.79833867
    H     -0.70000614     -0.62416063     -1.31425966
$end
   
$rem
mem_static = 200
mem_total  = 7500
exchange = b3lyp
basis = G3Large
max_scf_cycles = 50
scf_convergence = 7
symmetry = false
xc_grid = 000075000302
$end
