$molecule
0    1
    H      2.46298570      0.68922972      0.03284452
    H     -0.67042170      0.30371230     -1.05969054
    H     -0.64014539      0.55360322      0.92367739
   Li      0.68024480     -0.37638085      0.01191153
    H      2.75967719     -0.00153746     -0.05242185
    H     -2.41602882      0.14952791     -0.00696414
    H     -0.94516543     -1.26352929      0.14961077
    B     -1.23114636     -0.05462555      0.00103231
$end
   
$rem
mem_static = 200
mem_total  = 7500
exchange = b3lyp
basis = G3Large
max_scf_cycles = 50
scf_convergence = 7
symmetry = false
xc_grid = 000075000302
$end
