$molecule
0    1
    H     -0.46148989      2.66846114      0.48434196
    H     -0.72503124      2.64935980      1.19289022
    H     -0.29022428     -0.68129482     -2.45799232
    S     -0.91572994      0.02569235      0.81852122
    H     -0.05546780     -1.18871013     -2.96208812
   Cl     -0.71109561     -2.13106891      0.83573381
    H      2.24326776     -0.72796630      1.10576661
   Be      0.91577099     -0.61447313      0.98282664
$end
   
$rem
mem_static = 200
mem_total  = 7500
exchange = b3lyp
basis = G3Large
max_scf_cycles = 50
scf_convergence = 7
symmetry = false
xc_grid = 000075000302
$end
