$molecule
0    1
    H      2.60755573      0.09593703     -0.32627769
   Li      0.65813322     -0.33987863      0.20707716
    F     -0.90537835     -1.23965314      0.03414654
    H     -0.79243078      0.67105194      1.11182171
    H      2.70375965     -0.60905574     -0.06969154
    H     -0.57323965      0.72367533     -0.89728135
    H     -2.43828878      0.45583310     -0.09315729
    B     -1.26011104      0.24209013      0.03336247
$end
   
$rem
mem_static = 200
mem_total  = 7500
exchange = b3lyp
basis = G3Large
max_scf_cycles = 50
scf_convergence = 7
symmetry = false
xc_grid = 000075000302
$end
