$molecule
0    2
    H      2.54126849      0.46328306      0.33812416
    H      0.90505592     -0.88272980      0.05271660
    P      1.06844207      0.53393300      0.06984366
    H      1.23241159      0.80367960     -1.31329761
    H     -1.92214961     -1.22365341     -0.08527808
    H     -2.18029754     -1.92174965      0.03644201
    O     -0.65852482      1.05974628     -0.00575314
    H     -0.98620610      1.16749094      0.90720240
$end
   
$rem
mem_static = 200
mem_total  = 7500
exchange = b3lyp
basis = G3Large
max_scf_cycles = 50
scf_convergence = 7
symmetry = false
xc_grid = 000075000302
$end
