$molecule
0    1
    B     -0.81428110      0.18841232     -0.15006669
    H     -2.00398319      0.25820631     -0.13266285
    H     -0.29090173      0.73283376     -1.15473872
    H     -0.26714243      0.79969174      0.80341380
    S      0.10515333     -1.55875186     -0.20360121
    H      0.11687347     -1.82042405      1.13279071
   Be      0.98057941      0.39498383     -0.15154328
    H      2.17370222      1.00504794     -0.14359176
$end
   
$rem
mem_static = 200
mem_total  = 7500
exchange = b3lyp
basis = G3Large
max_scf_cycles = 50
scf_convergence = 7
symmetry = false
xc_grid = 000075000302
$end
