$molecule
0    1
    H      1.00516006      1.28236030      0.54117793
    H     -3.45178145      0.47430303     -0.37142626
    F     -0.28222377     -0.37398407      1.10359157
    H     -2.79648950      0.31064743     -0.04036947
    B      0.93340141      0.15165802      0.94743803
    H      1.19861610     -0.33834433     -1.83743637
    H      1.87842791     -0.53204425      1.24429467
    H      1.51488923     -0.97459612     -1.58727010
$end
   
$rem
mem_static = 200
mem_total  = 7500
exchange = b3lyp
basis = G3Large
max_scf_cycles = 50
scf_convergence = 7
symmetry = false
xc_grid = 000075000302
$end
