$molecule
0    1
    H     -0.91975120      0.34289806     -2.29177028
    B      0.00385979      0.83317807     -0.34425764
    C      0.00032559      0.37921783     -1.69177464
   Mg      0.00120755      0.24544687      1.95420248
    H     -0.00111240     -1.57864071      1.44253246
   Li      0.00303210     -1.50071615     -0.30179214
    H      0.91280580      0.34604412     -2.30304280
    H     -0.00036724      0.93257193      3.53590255
$end
   
$rem
mem_static = 200
mem_total  = 7500
exchange = b3lyp
basis = G3Large
max_scf_cycles = 50
scf_convergence = 7
symmetry = false
xc_grid = 000075000302
$end
