$molecule
0    1
    H      0.30523791      1.83345686      1.06449413
    B      0.10201366      1.35043911     -0.02967263
    F     -1.27762899      0.67087876     -0.03197641
    H      0.18289279      2.09866918     -0.97953653
    H     -0.31565642     -2.85697146      0.20902444
   Li     -0.34160289     -0.79299902     -0.19877765
    H      0.42112189     -2.68599319      0.17513491
    H      0.92362205      0.38251976     -0.20869026
$end
   
$rem
mem_static = 200
mem_total  = 7500
exchange = b3lyp
basis = G3Large
max_scf_cycles = 50
scf_convergence = 7
symmetry = false
xc_grid = 000075000302
$end
