$molecule
0    1
    H      0.63922459      1.26648854      0.45712509
   Be     -0.68578903     -0.01013453     -0.04664400
    H      0.13756219      1.21310611      1.03839770
    H      0.23159299     -1.24261075      1.07489754
    S     -0.40718112     -0.02489747     -1.98448288
    H     -1.61851261     -0.05881853      0.93407188
    H      0.94550934      0.12616355     -1.99137152
    H      0.75759365     -1.26929692      0.51800618
$end
   
$rem
mem_static = 200
mem_total  = 7500
exchange = b3lyp
basis = G3Large
max_scf_cycles = 50
scf_convergence = 7
symmetry = false
xc_grid = 000075000302
$end
