$molecule
0    1
    H      0.20939610     -0.52586201     -2.49942773
   Cl     -0.00687398     -1.57667209      0.66924455
    H     -0.20240220     -1.10324795     -2.75186243
    H     -1.52840909      1.31136360      0.17964049
    H      1.18007655      1.27519789     -0.42374768
    H      0.01797750     -1.62545538      1.96923293
   Al     -0.00655067      1.11838754      0.64243908
    H      0.33678578      1.12628839      2.21448080
$end
   
$rem
mem_static = 200
mem_total  = 7500
exchange = b3lyp
basis = G3Large
max_scf_cycles = 50
scf_convergence = 7
symmetry = false
xc_grid = 000075000302
$end
