$molecule
0    1
    H      0.98616464      1.03704897      0.73948231
    H      0.89996659     -0.63024437     -1.60440498
    N      0.03546051      0.95330434      0.37099745
    H     -0.14098414      1.78512288     -0.20003228
   Be      0.10013184     -2.33807403      0.57340123
   Be     -0.05364706     -0.49785932     -0.62668934
    H     -0.61505091      0.96511234      1.16148207
    H     -1.21204147     -1.27441080     -0.41423645
$end
   
$rem
mem_static = 200
mem_total  = 7500
exchange = b3lyp
basis = G3Large
max_scf_cycles = 50
scf_convergence = 7
symmetry = false
xc_grid = 000075000302
$end
