$molecule
0    1
    H      0.84609337     -0.67674837      0.99212001
   Be     -0.59270179      0.39936724      0.63642584
    H     -0.63508374     -1.71600345     -1.44624666
    H     -0.13095817     -1.78096802     -2.00197726
    H      1.25021992     -0.06007305      0.77334939
    H     -1.34171064     -0.65788046      1.00382419
    H      0.98188146      2.26369778      0.00831682
    S     -0.37774040      2.22860833      0.03418767
$end
   
$rem
mem_static = 200
mem_total  = 7500
exchange = b3lyp
basis = G3Large
max_scf_cycles = 50
scf_convergence = 7
symmetry = false
xc_grid = 000075000302
$end
