$molecule
0    1
    H      0.12955156     -1.69601924      0.98312965
    C      0.06647245     -1.21304584     -0.00794741
   Si      1.21592042      0.34263781     -0.00772878
    H      0.43470176     -1.95841908     -0.73098394
    H      0.20313732      2.56026122      0.01208212
    H     -0.99469719     -1.00982702     -0.22332606
    N     -0.02398358      1.56868563     -0.00638527
    H     -1.03110274      1.40572651     -0.01884031
$end
   
$rem
mem_static = 200
mem_total  = 7500
exchange = b3lyp
basis = G3Large
max_scf_cycles = 50
scf_convergence = 7
symmetry = false
xc_grid = 000075000302
$end
