$molecule
0    1
   Li     -1.20475087     -2.43359326     -0.00108529
   Si      1.25666399     -1.85240397      0.00008277
   Be     -0.45980881     -0.21316891     -0.00117327
    B      1.35804693     -0.02096419     -0.00303169
    H      0.88468631      2.54454249      0.00216516
    B      0.60625204      1.38002554      0.00026035
    H     -1.76816146     -0.72585029     -0.00064436
    H     -0.67292812      1.32141260      0.00342634
$end
   
$rem
mem_static = 200
mem_total  = 7500
exchange = b3lyp
basis = G3Large
max_scf_cycles = 50
scf_convergence = 7
symmetry = false
xc_grid = 000075000302
$end
