$molecule
0    1
    H     -0.96651973      0.05771584      1.94169918
    H      2.54721133     -0.39951791      0.00740472
    H     -0.95465827     -0.47848927      1.40997937
    F     -0.13605961      1.59997222     -0.28333088
    H     -0.92887341     -0.61498547     -1.63142113
    H      2.06237320      0.14133858     -0.18977644
    H     -1.21077373     -1.31294891     -1.64224089
    H     -0.41269979      1.00691492      0.38768606
$end
   
$rem
mem_static = 200
mem_total  = 7500
exchange = b3lyp
basis = G3Large
max_scf_cycles = 50
scf_convergence = 7
symmetry = false
xc_grid = 000075000302
$end
