$molecule
0    2
    C     -0.18147510      0.68701310      0.26731072
    F     -0.35672455      0.15075955      2.59460703
    C      0.76076812      0.20383862     -0.50790639
    H      1.75864364      0.13021435     -0.92674117
    C     -0.72567080     -0.13798642     -0.85251868
   Li      1.03436415     -0.25910661      1.79795206
    H     -1.20091634      0.38260964     -1.69131304
    H     -1.08898913     -1.15734223     -0.68139052
$end
   
$rem
mem_static = 200
mem_total  = 7500
exchange = b3lyp
basis = G3Large
max_scf_cycles = 50
scf_convergence = 7
symmetry = false
xc_grid = 000075000302
$end
