$molecule
0    2
    H      4.44606754     -0.43895586     -1.94855620
    H     -2.28288887     -0.75939789      0.85221551
    H     -3.79098779     -0.04602013     -0.02404234
    C     -2.78614903      0.07669503      0.37294026
    H      4.05151113     -0.09553371     -1.40798805
    C      1.79743991      0.30975635      0.68192179
    O      0.85114391     -0.08578584      1.17607419
    H     -2.28613682      1.03924205      0.29743484
$end
   
$rem
mem_static = 200
mem_total  = 7500
exchange = b3lyp
basis = G3Large
max_scf_cycles = 50
scf_convergence = 7
symmetry = false
xc_grid = 000075000302
$end
