$molecule
0    1
    C      0.81375716      0.10372172      0.34639985
    H      0.87653799      0.17194417      1.44377235
    H      1.67270530      0.57623794     -0.15360318
    N      0.56076437     -1.37061406      0.00951135
    C     -0.53617966      0.54867933     -0.29052230
    S     -2.13839340     -0.48144713      0.15104324
    H     -0.69522599      1.33852663     -1.02042526
    C     -0.55396577     -0.88704860     -0.48617603
$end
   
$rem
mem_static = 200
mem_total  = 7500
exchange = b3lyp
basis = G3Large
max_scf_cycles = 50
scf_convergence = 7
symmetry = false
xc_grid = 000075000302
$end
