$molecule
0    2
    C      0.00015608     -0.16124337     -1.55129864
    H     -0.00748869     -1.23794162     -1.74206642
    H      0.00744509      0.46712102     -2.44489813
    H      0.00085138     -0.71026805      2.72459418
    B     -0.00021321      0.43739519     -0.15125206
    O      0.00108586     -0.50831017      0.85597831
    H     -0.00176841      1.60459672      0.12022554
    O     -0.00006812      0.10865028      2.18871723
$end
   
$rem
mem_static = 200
mem_total  = 7500
exchange = b3lyp
basis = G3Large
max_scf_cycles = 50
scf_convergence = 7
symmetry = false
xc_grid = 000075000302
$end
