$molecule
0    2
    H      0.01389410      0.74697476     -2.81602996
    H     -1.16161186     -1.32437866      1.22818612
    H      0.01540384      1.42230583     -0.49775187
    H      1.26466705     -1.15089283      1.33851143
    P     -0.00316107     -0.44356359     -1.99775782
   Si     -0.00283425     -0.37876032      1.10755016
    N     -0.00719788      0.40571118     -0.48049210
    H     -0.11915992      0.72260362      2.11778404
$end
   
$rem
mem_static = 200
mem_total  = 7500
exchange = b3lyp
basis = G3Large
max_scf_cycles = 50
scf_convergence = 7
symmetry = false
xc_grid = 000075000302
$end
