$molecule
0    1
    H     -0.98467262      1.51615456      0.18475153
    C      0.05464267      1.18862992     -0.00042006
    H     -0.01943481     -3.10471323      0.85354677
    H     -0.33405408     -0.15372948     -1.37337118
    H      0.58704511      1.18217748      0.95916179
    H      0.54623783      1.92570466     -0.66095002
    H      0.02369066     -2.41293253      0.55548851
    O      0.12654524     -0.14129138     -0.51820735
$end
   
$rem
mem_static = 200
mem_total  = 7500
exchange = b3lyp
basis = G3Large
max_scf_cycles = 50
scf_convergence = 7
symmetry = false
xc_grid = 000075000302
$end
