$molecule
0    1
    H     -0.43127114      0.91467344      1.72106928
    H     -1.05080445      0.00077703     -2.22504894
    C     -0.04799192      0.00082129      1.23394942
    H     -0.44863556     -0.90752598      1.71756981
    H      1.04558462      0.00144766     -2.11841010
    B     -0.03418703      0.00028147     -1.57455658
    H      1.04691795     -0.01201791      1.43928872
    C     -0.07961247      0.00154299     -0.19386161
$end
   
$rem
mem_static = 200
mem_total  = 7500
exchange = b3lyp
basis = G3Large
max_scf_cycles = 50
scf_convergence = 7
symmetry = false
xc_grid = 000075000302
$end
