$molecule
0    2
    H      0.99613064      0.68060589      0.90376205
    C     -0.03958034      0.91601556      0.61561478
    H     -0.87030935     -2.73455388      0.76047951
    H     -0.69029197      1.37795384      1.35841073
    H      0.74573732     -0.76229799     -1.53688321
    H      0.27249247      0.70580491     -1.25165415
   Mg     -0.14132298     -1.50712844     -0.19383426
    O     -0.27285579      1.32360010     -0.65589545
$end
   
$rem
mem_static = 200
mem_total  = 7500
exchange = b3lyp
basis = G3Large
max_scf_cycles = 50
scf_convergence = 7
symmetry = false
xc_grid = 000075000302
$end
