$molecule
0    1
    C     -0.44386701     -0.00349449      0.05407090
    H     -1.53709341      0.03687192      0.07567106
    H     -0.37120355      2.01539364     -0.30671497
    N      0.15110232      1.25200244      0.11132355
    C      0.18194422     -1.19348754      0.05304221
    H      1.27070983     -1.27829925      0.03688550
    H     -0.39419288     -2.11542596      0.08780551
    H      1.14260048      1.28643925     -0.11208376
$end
   
$rem
mem_static = 200
mem_total  = 7500
exchange = b3lyp
basis = G3Large
max_scf_cycles = 50
scf_convergence = 7
symmetry = false
xc_grid = 000075000302
$end
