$molecule
0    2
    H      0.71057396     -1.83926475     -0.13089417
    C      0.04948743     -0.98473338      0.05885359
    N      0.83559258      0.22576417      0.03034992
    H     -0.75492251     -0.98945976     -0.71060335
    H     -0.92638365      1.24179428     -0.28927815
    H     -0.43850289     -1.13748410      1.04284602
    N      0.02285929      1.30520101      0.10533201
    H      0.50129579      2.17818252     -0.10660587
$end
   
$rem
mem_static = 200
mem_total  = 7500
exchange = b3lyp
basis = G3Large
max_scf_cycles = 50
scf_convergence = 7
symmetry = false
xc_grid = 000075000302
$end
