$molecule
0    1
    H      1.21010124     -1.20434225     -1.17831159
    H     -1.07847724      0.37698810      1.46828718
    S      0.75428771      0.10687864     -1.41883615
    P     -1.39315509      0.22405702     -1.10300485
    H      0.78963742      1.41132884      0.43008138
    C     -0.59521775     -0.10796549      0.60867043
    N      0.81651573      0.38051503      0.36977591
    H     -0.50369202     -1.18745989      0.82333770
$end
   
$rem
mem_static = 200
mem_total  = 7500
exchange = b3lyp
basis = G3Large
max_scf_cycles = 50
scf_convergence = 7
symmetry = false
xc_grid = 000075000302
$end
