$molecule
0    1
    H     -0.39056805     -1.57697234      1.06262266
    C     -0.22437383     -0.54137922      0.74331898
    O     -0.50888696     -0.33441276     -0.72907157
    C     -1.34321956      0.41075711      0.76330525
    C      0.79280091      0.12953893     -0.99217232
    P      1.64331411     -0.01185659      0.47754211
    H      0.95761093      0.48562677     -2.01089112
    H     -0.92667756      1.43869808      0.68534601
$end
   
$rem
mem_static = 200
mem_total  = 7500
exchange = b3lyp
basis = G3Large
max_scf_cycles = 50
scf_convergence = 7
symmetry = false
xc_grid = 000075000302
$end
