$molecule
0    2
    H     -0.05565618     -1.00378365      1.35004213
    H     -0.85107969      0.57288227      1.07819650
    C      0.00089669     -0.05557153      0.78343590
    H     -0.84104609     -0.66759197     -1.01558119
    H      0.91403365      0.47335440      1.08996225
    H      0.01841618      1.61332815     -1.60505817
    H      0.81267138     -0.72579386     -1.00914210
    N      0.00176405     -0.20682381     -0.67185532
$end
   
$rem
mem_static = 200
mem_total  = 7500
exchange = b3lyp
basis = G3Large
max_scf_cycles = 50
scf_convergence = 7
symmetry = false
xc_grid = 000075000302
$end
