$molecule
0    1
    P     -0.63287717     -0.04112238     -1.96291600
    C     -0.06322996     -0.90925258     -0.62509828
    H      1.08560589      1.72416841      0.81141384
   Mg     -0.64775416     -0.28794708      1.29053558
    H     -0.04267753     -0.77448710     -3.07774197
    H      0.57951325     -1.78206187     -0.80467897
    H      0.92547039      1.96874212      1.50865739
    H     -1.20405070      0.10196048      2.85982841
$end
   
$rem
mem_static = 200
mem_total  = 7500
exchange = b3lyp
basis = G3Large
max_scf_cycles = 50
scf_convergence = 7
symmetry = false
xc_grid = 000075000302
$end
