$molecule
0    1
    C      0.17842201      0.08919874      0.39187854
    F      0.10239594     -0.00396649     -3.06977735
    C     -0.71008079     -0.01193482      1.41322835
    H     -1.78965353     -0.03559835      1.56274567
    H      0.17759433      0.18638168     -0.69372696
    H     -0.30601646     -0.10083474     -3.90307963
    B      0.72519528     -0.03004768      1.76075918
    H      1.62214321     -0.09319834      2.53797220
$end
   
$rem
mem_static = 200
mem_total  = 7500
exchange = b3lyp
basis = G3Large
max_scf_cycles = 50
scf_convergence = 7
symmetry = false
xc_grid = 000075000302
$end
