$molecule
0    1
    P      0.51730726     -0.67190889     -0.37170992
   Cl     -0.19655008     -0.47243303      2.52394713
    N     -0.86272808     -0.16773330     -1.25478384
    H     -1.66376881     -0.78971923     -1.18346768
    H      1.42316233      0.63371665      1.37369627
    N      0.46456172      0.39262098      1.08846409
    H     -1.13670552      0.81437493     -1.22227569
    H      1.45472117      0.26108190     -0.95387035
$end
   
$rem
mem_static = 200
mem_total  = 7500
exchange = b3lyp
basis = G3Large
max_scf_cycles = 50
scf_convergence = 7
symmetry = false
xc_grid = 000075000302
$end
