$molecule
0    1
    H      1.52165276      0.00105203      0.54476040
    C     -0.07322421     -0.00001929     -0.82131899
    C     -0.09156877      0.00016967      1.71374157
    H      0.24008139      0.90260878     -1.36729052
    N      0.49648409     -0.00048346      0.54416481
    H      0.26500162     -0.88651794     -1.37867314
    H     -1.19216035     -0.00125533      1.49873473
    H     -1.16626653     -0.01555446     -0.73411886
$end
   
$rem
mem_static = 200
mem_total  = 7500
exchange = b3lyp
basis = G3Large
max_scf_cycles = 50
scf_convergence = 7
symmetry = false
xc_grid = 000075000302
$end
