$molecule
0    1
   Si      0.09718826      0.68711975     -0.32934742
   Cl      0.07954287     -3.56699762     -0.00207512
    O      0.11033671      2.34983857     -0.19226776
    H     -1.13275986      0.16929764     -1.00260240
    H      1.37159256      0.31803194     -0.99965040
    H      0.06442715     -2.51055328      0.76659686
    H     -0.68331837      2.76978123      0.17628498
   Cl      0.09299068     -0.21651824      1.58306127
$end
   
$rem
mem_static = 200
mem_total  = 7500
exchange = b3lyp
basis = G3Large
max_scf_cycles = 50
scf_convergence = 7
symmetry = false
xc_grid = 000075000302
$end
