$molecule
0    1
   Al     -1.10242033     -1.22515101      0.54560420
   Li     -0.52808826      0.52237990     -1.23833410
    H     -2.03468019     -0.08535490     -0.34354250
    C      0.65652570      0.21925842      0.48862663
    H     -0.16111165     -1.57029992     -0.98898203
   Al      1.35893927     -1.79669709      0.15026357
    H      1.00886948      2.48554362      0.79621423
    C      0.80196599      1.45032098      0.59015000
$end
   
$rem
mem_static = 200
mem_total  = 7500
exchange = b3lyp
basis = G3Large
max_scf_cycles = 50
scf_convergence = 7
symmetry = false
xc_grid = 000075000302
$end
