$molecule
0    1
    H      0.91693176     -0.28471418      1.25426496
    H      0.70233671     -2.70311307     -1.38291796
   Si     -0.27585625      0.22582693      0.48447130
   Si     -0.35600265      1.98446129     -0.95153084
   Cl     -0.32656101     -2.81202923     -0.59863784
    H      1.18483982      1.95543131     -0.83272640
    H     -1.50988751     -0.24265299      1.20963640
    H     -0.33580085      1.87678994      0.81744038
$end
   
$rem
mem_static = 200
mem_total  = 7500
exchange = b3lyp
basis = G3Large
max_scf_cycles = 50
scf_convergence = 7
symmetry = false
xc_grid = 000075000302
$end
