$molecule
0    1
    H     -1.79472461      0.01757505     -1.44883882
    H     -1.04087444      0.97247195      1.55534153
   Mg     -0.08054617      0.01216828     -1.70751000
    P     -0.01235050      0.01838194      1.87136391
    H      1.43961041      0.02037648     -2.55159666
    H     -0.90281130     -1.08820802      1.64148020
    O      0.71053690      0.00934089      0.28525265
    H      1.68115969      0.03789343      0.35450719
$end
   
$rem
mem_static = 200
mem_total  = 7500
exchange = b3lyp
basis = G3Large
max_scf_cycles = 50
scf_convergence = 7
symmetry = false
xc_grid = 000075000302
$end
