$molecule
0    1
    C     -0.44635367     -0.18556856      0.31649315
    C      0.78878258     -0.51568921     -0.10910291
    H      1.61270897      1.16422449      0.38962762
    O      1.90703465      0.34823729     -0.05342155
    H     -2.34855717      0.33513091      1.08667795
    H      1.11188164     -1.54577052     -0.27027279
    C     -1.67236653      0.24562827      0.23135104
   Li     -0.95313046      0.15380732     -1.59135252
$end
   
$rem
mem_static = 200
mem_total  = 7500
exchange = b3lyp
basis = G3Large
max_scf_cycles = 50
scf_convergence = 7
symmetry = false
xc_grid = 000075000302
$end
