$molecule
0    1
    O      3.64237839      0.00772973      0.51900000
    C      2.59137839     -0.55327027      0.32000000
    O      1.48137838     -0.34027027      1.05800000
    H      1.73137838      0.36472973      1.67800001
    C      2.39037839     -1.56327028     -0.79400000
    H      3.09137839     -2.37427028     -0.60300000
    H      2.68737839     -1.07727027     -1.72100001
    N      1.06537838     -2.09827028     -0.91800000
    H      0.35137838     -1.57527028     -1.41200000
    C      0.63937838     -3.02827028     -0.01800000
    O      1.38337838     -3.61127028      0.75700000
    C     -0.86762162     -3.24327028     -0.03800000
    H     -1.09862163     -4.08027028      0.61200000
    H     -1.21062163     -3.45327028     -1.05100000
    N     -1.55562163     -2.05927028      0.43400000
    H     -1.68462163     -1.88527028      1.42200000
    C     -1.82462163     -1.02127027     -0.37700000
    O     -1.57962163     -1.01927027     -1.58700001
    C     -2.50962163      0.15572973      0.31600000
    N     -2.18862163      0.13972973      1.74100001
    H     -1.25662163      0.51872973      1.87500001
    H     -2.82562163      0.73972973      2.25000001
    H     -3.58262163     -0.03927027      0.22600000
    C     -2.21362163      1.46872973     -0.42700000
    H     -2.50562163      1.34072973     -1.46900000
    H     -2.84962163      2.24372974      0.00700000
    C     -0.77562162      1.89472974     -0.34600000
    C     -0.30562162      2.61872974      0.75700000
    H     -0.99862162      2.91172974      1.53600000
    C      1.03237838      3.00872974      0.84400000
    H      1.37237838      3.57772974      1.70000001
    C      1.92037838      2.68872974     -0.18000000
    H      2.95737839      2.98472974     -0.11600000
    C      1.45937838      1.98472974     -1.29200000
    H      2.13937839      1.75172974     -2.10100001
    C      0.12737838      1.58372973     -1.37000000
    H     -0.23062162      1.03772973     -2.23200001
$end
   
$rem
mem_static = 200
mem_total  = 7500
exchange = b3lyp
basis = G3Large
max_scf_cycles = 50
scf_convergence = 7
symmetry = false
xc_grid = 000075000302
$end
