$molecule
0    1
    C      1.20827160      0.69759594      0.00000000
    C      1.20827160     -0.69759594      0.00000000
    C      0.00000000     -1.39519187      0.00000000
    C     -1.20827160     -0.69759594      0.00000000
    C     -1.20827160      0.69759594      0.00000000
    C      0.00000000      1.39519187      0.00000000
    H      2.14522382      1.23854555      0.00000000
    H      2.14522382     -1.23854555      0.00000000
    H      0.00000000     -2.47709110      0.00000000
    H     -2.14522382     -1.23854555      0.00000000
    H     -2.14522382      1.23854555      0.00000000
    H      0.00000000      2.47709110      0.00000000
$end
   
$rem
mem_static = 200
mem_total  = 7500
exchange = b3lyp
basis = G3Large
max_scf_cycles = 50
scf_convergence = 7
symmetry = false
xc_grid = 000075000302
$end
