$molecule
1    1
    C      1.21303359      0.70034527     -0.17011686
    C      1.21303359     -0.70034527     -0.17011686
    C      0.00000000     -1.40069055     -0.17011686
    C     -1.21303359     -0.70034527     -0.17011686
    C     -1.21303359      0.70034527     -0.17011686
    C      0.00000000      1.40069055     -0.17011686
    H      2.14929409      1.24089552     -0.20572985
    H      2.14929409     -1.24089552     -0.20572985
    H      0.00000000     -2.48179105     -0.20572985
    H     -2.14929409     -1.24089552     -0.20572985
    H     -2.14929409      1.24089552     -0.20572985
    H      0.00000000      2.48179105     -0.20572985
   Na      0.00000000      0.00000000      2.25508024
$end
   
$rem
mem_static = 200
mem_total  = 7500
exchange = b3lyp
basis = G3Large
max_scf_cycles = 50
scf_convergence = 7
symmetry = false
xc_grid = 000075000302
$end
