$molecule
0        1
C      0.00000000        0.00000000        0.50048648
C      0.00000000        0.00000000       -2.27037382
Cl      0.00000000        0.00000000        2.25424698
C      0.00000000        1.21387381       -0.17884233
C      0.00000000       -1.21387381       -0.17884233
H      0.00000000        0.00000000       -3.35481863
C      0.00000000       -1.20506940       -1.57176340
C      0.00000000        1.20506940       -1.57176340
H      0.00000000        2.14451757        0.37522034
H      0.00000000       -2.14451757        0.37522034
H      0.00000000       -2.14753231       -2.10908161
H      0.00000000        2.14753231       -2.10908161
$end
   
$rem
mem_static = 200
mem_total  = 7500
exchange = b3lyp
basis = 6-311+g(3df,2p)
scf_convergence = 7
symmetry = false
xc_grid = 000075000302
$end
