$molecule
0        2
C     -0.00700398        0.53337890        0.00000000
C      0.01936767       -0.19637851        1.29952881
C      0.01936767       -0.19637851       -1.29952881
H     -0.29136086        1.58156708        0.00000000
H      0.25311885        0.46714535        2.13814352
H      0.25311885        0.46714535       -2.13814352
H     -0.95057877       -0.67140270        1.53235712
H      0.75865967       -1.00817562        1.29138527
H     -0.95057877       -0.67140270       -1.53235712
H      0.75865967       -1.00817562       -1.29138527
$end
   
$rem
mem_static = 200
mem_total  = 7500
exchange = b3lyp
basis = 6-311+g(3df,2p)
scf_convergence = 7
symmetry = false
xc_grid = 000075000302
$end
