$molecule
0        1
C     -0.00016542        0.01726283        0.00000000
O     -0.48186132        1.36796651        0.00000000
C      1.52474797        0.14439051        0.00000000
C     -0.48768193       -0.70475768        1.26450806
C     -0.48768193       -0.70475768       -1.26450806
H     -1.44452892        1.33440712       -0.00000000
H      1.99970051       -0.84105998        0.00000000
H      1.85884843        0.69245046        0.88555647
H      1.85884843        0.69245046       -0.88555647
H     -0.09483240       -1.72533863        1.32097279
H     -1.58240890       -0.77050518        1.27682804
H     -0.16940010       -0.15992146        2.15789580
H     -0.09483240       -1.72533863       -1.32097279
H     -1.58240890       -0.77050518       -1.27682804
H     -0.16940010       -0.15992146       -2.15789580
$end
   
$rem
mem_static = 200
mem_total  = 7500
exchange = b3lyp
basis = 6-311+g(3df,2p)
scf_convergence = 7
symmetry = false
xc_grid = 000075000302
$end
