$molecule
0        1
C      1.31778705        0.98418464        0.00000000
C      0.00100334        0.76911549        0.00000000
C     -0.57777786       -0.53435090        0.00000000
H      2.02980492        0.16708544       -0.00000000
H      1.71518371        1.99242088       -0.00000000
H     -0.70407533        1.59509326       -0.00000000
N     -1.07186683       -1.58178180       -0.00000000
$end
   
$rem
mem_static = 200
mem_total  = 7500
exchange = b3lyp
basis = 6-311+g(3df,2p)
scf_convergence = 7
symmetry = false
xc_grid = 000075000302
$end
