$molecule
0        1
C      0.01005340        0.93810007        0.00000000
C      0.00695263        0.22153290        1.20515116
C      0.00695263        0.22153290       -1.20515116
C      0.00385428       -1.16831954        1.19981476
C      0.00385428       -1.16831954       -1.19981476
C      0.00233807       -1.87680375        0.00000000
N      0.07485275        2.33356602        0.00000000
H     -0.29005611        2.77218720       -0.83314492
H     -0.29005611        2.77218720        0.83314492
H     -0.00008025       -1.70124535        2.14556680
H     -0.00008025       -1.70124535       -2.14556680
H     -0.00127493       -2.96082705        0.00000000
H      0.01035182        0.76372015        2.14664873
H      0.01035182        0.76372015       -2.14664873
$end
   
$rem
mem_static = 200
mem_total  = 7500
exchange = b3lyp
basis = 6-311+g(3df,2p)
scf_convergence = 7
symmetry = false
xc_grid = 000075000302
$end
