$molecule
0        1
H      0.56116093        1.15410243        2.02490286
H      0.56116093        1.15410243       -2.02490286
C     -0.00228771       -0.76253016        1.16891875
C     -0.00228771       -0.76253016       -1.16891875
H     -0.56116093       -1.15410243       -2.02490286
C      0.00228771        0.76253016       -1.16891875
C      0.00228771        0.76253016        1.16891875
H      1.03532954       -1.13149493        1.22552657
H      1.03532954       -1.13149493       -1.22552657
O     -0.63629052       -1.25991736        0.00000000
H     -1.03532954        1.13149493       -1.22552657
H     -1.03532954        1.13149493        1.22552657
O      0.63629052        1.25991736        0.00000000
H     -0.56116093       -1.15410243        2.02490286
$end
   
$rem
mem_static = 200
mem_total  = 7500
exchange = b3lyp
basis = 6-311+g(3df,2p)
scf_convergence = 7
symmetry = false
xc_grid = 000075000302
$end
