$molecule
0        1
C      1.52029996        0.70879816       -0.00000000
C     -0.00089702        0.83620224        0.00000000
S     -0.75344211       -0.84568544        0.00000000
H     -2.04085759       -0.45305313        0.00000000
H     -0.34339668        1.37321622        0.88742281
H     -0.34339668        1.37321622       -0.88742281
H      1.97990296        1.70229088        0.00000000
H      1.87285008        0.17203542        0.88580454
H      1.87285008        0.17203542       -0.88580454
$end
   
$rem
mem_static = 200
mem_total  = 7500
exchange = b3lyp
basis = 6-311+g(3df,2p)
scf_convergence = 7
symmetry = false
xc_grid = 000075000302
$end
