$molecule
0        1
C      0.00000000        0.74063961       -0.80505226
S      0.00000000        0.00000000        0.86946173
C      0.00000000       -0.74063961       -0.80505226
H      0.91459808        1.25643159       -1.07899530
H     -0.91459808        1.25643159       -1.07899530
H     -0.91459808       -1.25643159       -1.07899530
H      0.91459808       -1.25643159       -1.07899530
$end
   
$rem
mem_static = 200
mem_total  = 7500
exchange = b3lyp
basis = 6-311+g(3df,2p)
scf_convergence = 7
symmetry = false
xc_grid = 000075000302
$end
