$molecule
0        1
H     -2.17560934        0.00000000        0.86918667
C     -1.49848934        0.00000000        0.00000000
C      0.66549558        1.25268016        0.00000000
C      0.66549558       -1.25268016        0.00000000
C      1.49848934        0.00000000        0.00000000
C     -0.66549558       -1.25268016        0.00000000
C     -0.66549558        1.25268016        0.00000000
H      1.20503530        2.19674775        0.00000000
H     -1.20503530        2.19674775        0.00000000
H      2.17560934        0.00000000        0.86918667
H     -1.20503530       -2.19674775        0.00000000
H      1.20503530       -2.19674775        0.00000000
H     -2.17560934        0.00000000       -0.86918667
H      2.17560934        0.00000000       -0.86918667
$end
   
$rem
mem_static = 200
mem_total  = 7500
exchange = b3lyp
basis = 6-311+g(3df,2p)
scf_convergence = 7
symmetry = false
xc_grid = 000075000302
$end
