$molecule
0        1
H      0.31608707        0.56646079        2.17513809
C      0.03972594        1.11738382        1.27114517
H     -1.03091171        1.34610976        1.32732313
C      0.36793746        0.31531976        0.00000000
H      0.58254716        2.06754670        1.27200446
C     -0.43023277       -0.97343053        0.00000000
H      1.42624043        0.03429185        0.00000000
C      0.03972594        1.11738382       -1.27114517
H     -1.03091171        1.34610977       -1.32732313
H      0.31608706        0.56646079       -2.17513809
H      0.58254716        2.06754670       -1.27200447
O      0.03282711       -2.08413426       -0.00000000
H     -1.53706113       -0.81357199       -0.00000000
$end
   
$rem
mem_static = 200
mem_total  = 7500
exchange = b3lyp
basis = 6-311+g(3df,2p)
scf_convergence = 7
symmetry = false
xc_grid = 000075000302
$end
