$molecule
0        1
O      0.00000000        0.00000000        1.15625473
C      0.00000000        1.09190361        0.34630249
C      0.00000000       -1.09190361        0.34630249
C     -0.00000000        0.71724926       -0.95864716
C      0.00000000       -0.71724926       -0.95864716
H      0.00000000        2.04498404        0.84877233
H     -0.00000000       -2.04498404        0.84877233
H     -0.00000000        1.37300912       -1.81500952
H      0.00000000       -1.37300912       -1.81500952
$end
   
$rem
mem_static = 200
mem_total  = 7500
exchange = b3lyp
basis = 6-311+g(3df,2p)
scf_convergence = 7
symmetry = false
xc_grid = 000075000302
$end
