$molecule
0        1
C      1.17600872       -0.40078186        0.00000000
C     -0.00775207        0.55242828        0.00000000
O     -1.19574212       -0.22671695        0.00000000
H     -1.94737263        0.37301584       -0.00000000
H      0.03774931        1.20576227        0.88643469
H      0.03774931        1.20576227       -0.88643469
H      2.11864691        0.15470696       -0.00000000
H      1.14893628       -1.04214791        0.88579644
H      1.14893628       -1.04214791       -0.88579644
$end
   
$rem
mem_static = 200
mem_total  = 7500
exchange = b3lyp
basis = 6-311+g(3df,2p)
scf_convergence = 7
symmetry = false
xc_grid = 000075000302
$end
