$molecule
0        1
C     -0.00452178        0.15798926        0.00000000
O      0.16977949        1.34879882        0.00000000
O     -1.24062802       -0.39891860        0.00000000
H     -1.86672708        0.34055758        0.00000000
C      1.06982665       -0.89948609        0.00000000
H      2.04945645       -0.42400317        0.00000000
H      0.96322014       -1.53962390        0.88044970
H      0.96322014       -1.53962390       -0.88044970
$end
   
$rem
mem_static = 200
mem_total  = 7500
exchange = b3lyp
basis = 6-311+g(3df,2p)
scf_convergence = 7
symmetry = false
xc_grid = 000075000302
$end
