$molecule
0        1
C      1.09008981        1.09008981        1.09008981
Si      0.00000000        0.00000000        0.00000000
C     -1.09008981       -1.09008981        1.09008980
C     -1.09008981        1.09008981       -1.09008981
C      1.09008981       -1.09008981       -1.09008981
H      1.73657270        1.73657269        0.48686067
H      1.73657269        0.48686067        1.73657270
H      0.48686067        1.73657270        1.73657269
H     -1.73657269       -1.73657269        0.48686067
H     -1.73657269       -0.48686067        1.73657269
H     -0.48686067       -1.73657269        1.73657269
H     -1.73657269        0.48686067       -1.73657269
H     -0.48686067        1.73657269       -1.73657269
H     -1.73657270        1.73657269       -0.48686067
H      0.48686067       -1.73657269       -1.73657269
H      1.73657269       -1.73657269       -0.48686067
H      1.73657269       -0.48686067       -1.73657269
$end
   
$rem
mem_static = 200
mem_total  = 7500
exchange = b3lyp
basis = 6-311+g(3df,2p)
scf_convergence = 7
symmetry = false
xc_grid = 000075000302
$end
