$molecule
0        1
O      0.00000000        0.00000000        1.24910233
C      0.00049266        1.17047381        0.43209029
C     -0.00049266       -1.17047381        0.43209029
C     -0.30458688        0.70506383       -0.99643204
C      0.30458688       -0.70506383       -0.99643204
H     -0.74212712        1.87580627        0.82269337
H      0.98701591        1.65652819        0.48561703
H      0.74212712       -1.87580627        0.82269337
H     -0.98701591       -1.65652819        0.48561703
H     -1.38682471        0.65204335       -1.15834502
H      0.11896353        1.36582037       -1.75681129
H      1.38682471       -0.65204335       -1.15834502
H     -0.11896353       -1.36582037       -1.75681129
$end
   
$rem
mem_static = 200
mem_total  = 7500
exchange = b3lyp
basis = 6-311+g(3df,2p)
scf_convergence = 7
symmetry = false
xc_grid = 000075000302
$end
