$molecule
0        1
C      0.00117751        0.76633164       -0.00000000
C     -0.00117751       -0.76633164       -0.00000000
C     -1.40240014        1.38095139       -0.00000000
C      1.40240014       -1.38095139       -0.00000000
C     -1.40043058        2.91362748        0.00000000
C      1.40043058       -2.91362748        0.00000000
C     -2.80638919        3.51987254        0.00000000
C      2.80638919       -3.51987254        0.00000000
H      0.55600034        1.12834288        0.87706710
H      0.55600034        1.12834288       -0.87706710
H     -0.55600034       -1.12834288        0.87706710
H     -0.55600034       -1.12834288       -0.87706710
H     -1.95785707        1.01952071        0.87702600
H     -1.95785707        1.01952071       -0.87702600
H      1.95785707       -1.01952071        0.87702600
H      1.95785707       -1.01952071       -0.87702600
H     -0.84573043        3.27408195       -0.87666937
H     -0.84573043        3.27408194        0.87666938
H      0.84573043       -3.27408195       -0.87666937
H      0.84573043       -3.27408194        0.87666938
H     -3.37333041        3.20510085        0.88341309
H     -3.37333041        3.20510085       -0.88341309
H      3.37333041       -3.20510085        0.88341309
H      3.37333041       -3.20510085       -0.88341309
H     -2.77148551        4.61401412        0.00000000
H      2.77148551       -4.61401412        0.00000000
$end
   
$rem
mem_static = 200
mem_total  = 7500
exchange = b3lyp
basis = 6-311+g(3df,2p)
scf_convergence = 7
symmetry = false
xc_grid = 000075000302
$end
