$molecule
0        1
H     -1.11491482        2.40830796        0.00000000
N      0.02329726        0.62305792        0.00000000
C      0.01800872       -0.17500392        1.11737892
H      0.42508005        2.46925803        0.88564758
H      0.42508005        2.46925803       -0.88564758
C      0.01800872       -0.17500392       -1.11737892
C     -0.07281754        2.06671239        0.00000000
C      0.01753242       -1.48955435        0.71088452
H      0.01616257        0.26522844        2.10229778
C      0.01753242       -1.48955435       -0.71088452
H      0.01616257        0.26522844       -2.10229778
H      0.03157029       -2.35155434        1.36015998
H      0.03157029       -2.35155434       -1.36015998
$end
   
$rem
mem_static = 200
mem_total  = 7500
exchange = b3lyp
basis = 6-311+g(3df,2p)
scf_convergence = 7
symmetry = false
xc_grid = 000075000302
$end
