$molecule
0        1
C     -0.00226422        0.49007411        0.00000000
O     -1.17747052        0.75463214        0.00000000
O      0.47806159       -0.77226042        0.00000000
C      1.12928219        1.48967964        0.00000000
C     -0.51602982       -1.80408215        0.00000000
H      0.72102607        2.49946482       -0.00000000
H      1.76079247        1.34162065        0.88055770
H      1.76079247        1.34162065       -0.88055770
H      0.03334855       -2.74567926       -0.00000000
H     -1.14964839       -1.73077309        0.88761430
H     -1.14964839       -1.73077309       -0.88761430
$end
   
$rem
mem_static = 200
mem_total  = 7500
exchange = b3lyp
basis = 6-311+g(3df,2p)
scf_convergence = 7
symmetry = false
xc_grid = 000075000302
$end
