$molecule
0        1
O      1.20660073        0.38563554       -0.00000000
C      0.00526445        0.46147413        0.00000000
H     -0.50389490        1.45331867       -0.00000000
C     -0.93203217       -0.71913495        0.00000000
H     -0.37213799       -1.65574219        0.00000000
H     -1.58607906       -0.67061960        0.87914702
H     -1.58607906       -0.67061960       -0.87914702
$end
   
$rem
mem_static = 200
mem_total  = 7500
exchange = b3lyp
basis = 6-311+g(3df,2p)
scf_convergence = 7
symmetry = false
xc_grid = 000075000302
$end
