$molecule
0        1
C      0.00000000        0.00000000        1.37167213
C     -0.00000000        1.21278651        0.69635815
C      0.00000000        1.21278651       -0.69635815
C     -0.00000000        0.00000000       -1.37167213
C      0.00000000       -1.21278651       -0.69635815
C     -0.00000000       -1.21278651        0.69635815
F     -0.00000000        0.00000000        2.70993900
F      0.00000000        0.00000000       -2.70993900
H      0.00000000        2.13787004        1.25991836
H     -0.00000000        2.13787004       -1.25991836
H     -0.00000000       -2.13787004       -1.25991836
H      0.00000000       -2.13787004        1.25991836
$end
   
$rem
mem_static = 200
mem_total  = 7500
exchange = b3lyp
basis = 6-311+g(3df,2p)
scf_convergence = 7
symmetry = false
xc_grid = 000075000302
$end
