$molecule
0        1
S      0.00000000        0.00000000        0.00000000
F      0.00000000        0.00000000        1.57537338
F      0.00000000        1.57537338        0.00000000
F      0.00000000        0.00000000       -1.57537338
F     -1.57537338        0.00000000        0.00000000
F      1.57537338        0.00000000        0.00000000
F      0.00000000       -1.57537338        0.00000000
$end
   
$rem
mem_static = 200
mem_total  = 7500
exchange = b3lyp
basis = 6-311+g(3df,2p)
scf_convergence = 7
symmetry = false
xc_grid = 000075000302
$end
