$molecule
0        2
C      0.00000000        0.00000000        1.39535481
C      0.00000000        0.00000000       -1.32058197
C      0.00000000        1.22422962        0.77088698
C      0.00000000       -1.22422962        0.77088698
C      0.00000000        1.21172268       -0.63091761
C      0.00000000       -1.21172268       -0.63091761
H      0.00000000        0.00000000       -2.40537348
H      0.00000000        2.15902156        1.32121309
H      0.00000000       -2.15902156        1.32121309
H      0.00000000        2.15048404       -1.17677014
H      0.00000000       -2.15048404       -1.17677014
$end
   
$rem
mem_static = 200
mem_total  = 7500
exchange = b3lyp
basis = 6-311+g(3df,2p)
scf_convergence = 7
symmetry = false
xc_grid = 000075000302
$end
