$molecule
0        1
C     -0.00005179       -0.00003718       -0.36588752
Cl     -0.00001760        0.00008175        1.42020913
F      0.00011757        1.24368990       -0.81137506
F      1.07703665       -0.62178543       -0.81153745
F     -1.07708482       -0.62194904       -0.81148109
$end
   
$rem
mem_static = 200
mem_total  = 7500
exchange = b3lyp
basis = 6-311+g(3df,2p)
scf_convergence = 7
symmetry = false
xc_grid = 000075000302
$end
