$molecule
0        1
H     -0.53219468       -1.20967089        2.08248829
C     -0.00827262       -0.79242323        1.21559271
C     -0.00827262       -0.79242323       -1.21559271
C      0.63772708        1.32745344        0.00000000
C     -0.01193451        0.74530643       -1.26459912
C     -0.01193451        0.74530643        1.26459912
N     -0.60282760       -1.35432032        0.00000000
H      1.02926679       -1.15208091       -1.27199745
H      1.70858329        1.07922371        0.00000000
H     -1.05005182        1.09879793       -1.34010630
H     -1.05005182        1.09879793        1.34010630
H     -1.60046981       -1.15827038        0.00000000
H      1.02926679       -1.15208091        1.27199745
H     -0.53219469       -1.20967089       -2.08248829
H      0.57265044        2.42116503        0.00000000
H      0.50718015        1.09691094       -2.16460019
H      0.50718015        1.09691094        2.16460019
$end
   
$rem
mem_static = 200
mem_total  = 7500
exchange = b3lyp
basis = 6-311+g(3df,2p)
scf_convergence = 7
symmetry = false
xc_grid = 000075000302
$end
