$molecule
0        1
C     -0.00000000       -0.00005898        0.77407015
C     -0.00000000        0.00005898       -0.77407015
F     -0.00000000        1.25124178        1.22220211
F     -1.08361614       -0.62567626        1.22234687
F      1.08361614       -0.62567626        1.22234687
F     -0.00000000       -1.25124178       -1.22220211
F     -1.08361614        0.62567626       -1.22234687
F      1.08361614        0.62567626       -1.22234687
$end
   
$rem
mem_static = 200
mem_total  = 7500
exchange = b3lyp
basis = 6-311+g(3df,2p)
scf_convergence = 7
symmetry = false
xc_grid = 000075000302
$end
