$molecule
0        1
P      0.00001597        0.00004333        0.00000000
F     -0.00002822       -0.00027039        1.57830180
F      0.00000908        1.54972032        0.00000000
F     -0.00002822       -0.00027039       -1.57830180
F      1.34237660       -0.77461525        0.00000000
F     -1.34234522       -0.77460761       -0.00000000
$end
   
$rem
mem_static = 200
mem_total  = 7500
exchange = b3lyp
basis = 6-311+g(3df,2p)
scf_convergence = 7
symmetry = false
xc_grid = 000075000302
$end
