$molecule
0        1
N      0.00958622        0.71826750       -0.09364289
N     -0.00958622       -0.71826750       -0.09364289
H      0.24191329        1.09077698        0.82602502
H     -0.93565311        1.02455148       -0.30090712
H     -0.24191329       -1.09077698        0.82602502
H      0.93565311       -1.02455148       -0.30090712
$end
   
$rem
mem_static = 200
mem_total  = 7500
exchange = b3lyp
basis = 6-311+g(3df,2p)
scf_convergence = 7
symmetry = false
xc_grid = 000075000302
$end
