$molecule
0        1
C     -0.04534212        0.65584586       -0.00000000
O     -0.05133859       -0.75956145       -0.00000000
H     -1.09000613        0.97902598        0.00000000
H      0.86260063       -1.05773815        0.00000000
H      0.44069311        1.07934687        0.89180325
H      0.44069311        1.07934687       -0.89180325
$end
   
$rem
mem_static = 200
mem_total  = 7500
exchange = b3lyp
basis = 6-311+g(3df,2p)
scf_convergence = 7
symmetry = false
xc_grid = 000075000302
$end
