$molecule
0        1
O      0.03984867        1.11789403        0.00000000
H     -0.90425627        1.33187991        0.00000000
Cl      0.03007860       -0.58980394        0.00000000
$end
   
$rem
mem_static = 200
mem_total  = 7500
exchange = b3lyp
basis = 6-311+g(3df,2p)
scf_convergence = 7
symmetry = false
xc_grid = 000075000302
$end
