$molecule
0        1
C     -0.04782916        1.16326952        0.00000000
S     -0.04741961       -0.66652208        0.00000000
H      1.28823853       -0.83292508       -0.00000000
H     -1.09692282        1.46420694       -0.00000000
H      0.43258253        1.55841385        0.89588743
H      0.43258253        1.55841385       -0.89588743
$end
   
$rem
mem_static = 200
mem_total  = 7500
exchange = b3lyp
basis = 6-311+g(3df,2p)
scf_convergence = 7
symmetry = false
xc_grid = 000075000302
$end
