$molecule
0        1
Cl     -0.51368046       -0.94176731        0.00000000
N     -0.00814762        0.98265001        0.00000000
O      1.11176308        1.16335230        0.00000000
$end
   
$rem
mem_static = 200
mem_total  = 7500
exchange = b3lyp
basis = 6-311+g(3df,2p)
scf_convergence = 7
symmetry = false
xc_grid = 000075000302
$end
