$molecule
0        1
C      0.00000170       -0.00098796        0.21990011
C      0.00000316        0.00088933        1.42135018
C      0.00000071       -0.00015001       -1.23501809
H     -0.00000327        0.00002113        2.48282210
H     -0.00000148        1.02125290       -1.63050013
H      0.88436221       -0.51051335       -1.63139636
H     -0.88436303       -0.51051204       -1.63139580
$end
   
$rem
mem_static = 200
mem_total  = 7500
exchange = b3lyp
basis = 6-311+g(3df,2p)
scf_convergence = 7
symmetry = false
xc_grid = 000075000302
$end
