$molecule
0        1
C      0.00000000        0.00000000        0.85934422
C      0.00000000        0.64526504       -0.50188843
C      0.00000000       -0.64526504       -0.50188843
H     -0.91220004        0.00000000        1.46064055
H      0.91220004        0.00000000        1.46064055
H      0.00000000        1.57649449       -1.04023973
H      0.00000000       -1.57649449       -1.04023973
$end
   
$rem
mem_static = 200
mem_total  = 7500
exchange = b3lyp
basis = 6-311+g(3df,2p)
scf_convergence = 7
symmetry = false
xc_grid = 000075000302
$end
