$molecule
0        1
O      0.00000000        1.07573698       -0.21571360
O      0.00000000        0.00000000        0.43142720
O      0.00000000       -1.07573698       -0.21571360
$end
   
$rem
mem_static = 200
mem_total  = 7500
exchange = b3lyp
basis = 6-311+g(3df,2p)
scf_convergence = 7
symmetry = false
xc_grid = 000075000302
$end
