$molecule
0        1
C      0.60109355        1.74723575        0.00000000
C      0.59983557        0.41086555       -0.00000000
C     -0.59983557       -0.41086555        0.00000000
C     -0.60109355       -1.74723575       -0.00000000
H      1.52183584        2.31936264        0.00000000
H     -0.32489637        2.31503769       -0.00000000
H      1.54743595       -0.12608112        0.00000000
H     -1.54743595        0.12608112        0.00000000
H      0.32489637       -2.31503769        0.00000000
H     -1.52183584       -2.31936264        0.00000000
$end
   
$rem
mem_static = 200
mem_total  = 7500
exchange = b3lyp
basis = 6-311+g(3df,2p)
scf_convergence = 7
symmetry = false
xc_grid = 000075000302
$end
