$molecule
0        1
C      0.00000000        0.66882075        0.81563205
C      0.00000000       -0.66882075        0.81563205
C      0.00000000        0.78602539       -0.69813799
C     -0.00000000       -0.78602539       -0.69813799
H      0.00000000        1.41785502        1.59956215
H     -0.00000000       -1.41785502        1.59956215
H      0.88837025        1.24646732       -1.14386761
H     -0.88837025        1.24646732       -1.14386760
H     -0.88837025       -1.24646732       -1.14386761
H      0.88837025       -1.24646732       -1.14386761
$end
   
$rem
mem_static = 200
mem_total  = 7500
exchange = b3lyp
basis = 6-311+g(3df,2p)
scf_convergence = 7
symmetry = false
xc_grid = 000075000302
$end
