$molecule
0        1
C      0.00000191       -0.00001055       -1.17537462
C      0.00000294       -0.00003868        0.28204695
N      0.00000376        0.00005296        1.43696715
H     -0.00001183        1.02535380       -1.55473501
H      0.88797508       -0.51268602       -1.55480646
H     -0.88797186       -0.51267051       -1.55482601
$end
   
$rem
mem_static = 200
mem_total  = 7500
exchange = b3lyp
basis = 6-311+g(3df,2p)
scf_convergence = 7
symmetry = false
xc_grid = 000075000302
$end
