$molecule
0        1
C      0.00001111        0.00000000        0.76953479
Cl     -0.00000876        1.48873227       -0.21740872
Cl     -0.00000876       -1.48873227       -0.21740872
H     -0.90144735        0.00000000        1.37539506
H      0.90145376        0.00000000        1.37541859
$end
   
$rem
mem_static = 200
mem_total  = 7500
exchange = b3lyp
basis = 6-311+g(3df,2p)
scf_convergence = 7
symmetry = false
xc_grid = 000075000302
$end
