lattice_vector 0.0000 2.6650 2.6650
lattice_vector 2.6650 0.0000 2.6650
lattice_vector 2.6650 2.6650 0.0000

atom   0.0000 0.0000 0.0000 Li
atom   1.3325 1.3325 1.3325 Cl
