$molecule
0    3
    N      0.00000000      0.00000000      0.06983896
    H      0.00000000      0.00000000     -0.97047867
$end
   
$rem
mem_static = 200
mem_total  = 7500
exchange = b3lyp
basis = G3Large
max_scf_cycles = 50
scf_convergence = 7
symmetry = false
xc_grid = 000075000302
$end
