#p  BLYP/6-311+g(3df,2p) scf=tight iop(3/76=0350006500,3/78=0640006400)
extraoverlay

8/10=90/1;9/16=-3/6;

1 ch5.in

0 2
 C
 H1,  C,  R1
 H2,  C,  R2,  H1,  A1
 H3,  C,  R2,  H1,  A1,    H2,  120.0
 H4,  C,  R2,  H1,  A1,    H2, -120.0
 H5,  H1, R3,  C,   180.0, H2,  0.0 

R1=1.3989833    
R2=1.0848813    
A1=103.1143477  
R3=0.8953954    



--link1--
#p  BLYP/6-311+g(3df,2p) scf=tight iop(3/76=0350006500,3/78=0640006400)
extraoverlay

8/10=90/1;9/16=-3/6;

2 H_CH4

0 2
 C
 H1,  C,  R1
 H2,  C,  R2,  H1,  A1
 H3,  C,  R2,  H1,  A1,    H2,  120.0
 H4,  C,  R2,  H1,  A1,    H2, -120.0
 H5,  H1, R3,  C,   180.0, H2,  0.0

R1=    1.3905336
R2=    1.0850049
A1=  103.2748275
R3=    0.9004302




--link1--
#p  BLYP/6-311+g(3df,2p) scf=tight iop(3/76=0350006500,3/78=0640006400)
extraoverlay

8/10=90/1;9/16=-3/6;

3 H_CH4

0 2
 C
 H1,  C,  R1
 H2,  C,  R2,  H1,  A1
 H3,  C,  R2,  H1,  A1,    H2,  120.0
 H4,  C,  R2,  H1,  A1,    H2, -120.0
 H5,  H1, R3,  C,   180.0, H2,  0.0

R1=    1.3238234
R2=    1.0859968
A1=  104.5457513
R3=    0.9414559




--link1--
#p  BLYP/6-311+g(3df,2p) scf=tight iop(3/76=0350006500,3/78=0640006400)
extraoverlay

8/10=90/1;9/16=-3/6;

4 H_CH4

0 2
 C
 H1,  C,  R1
 H2,  C,  R2,  H1,  A1
 H3,  C,  R2,  H1,  A1,    H2,  120.0
 H4,  C,  R2,  H1,  A1,    H2, -120.0
 H5,  H1, R3,  C,   180.0, H2,  0.0

R1=    1.2857747
R2=    1.0866043
A1=  105.2692295
R3=    0.9753850



--link1--
#p  BLYP/6-311+g(3df,2p) scf=tight iop(3/76=0350006500,3/78=0640006400)
extraoverlay

8/10=90/1;9/16=-3/6;

5 H_CH4

0 2
 C
 H1,  C,  R1
 H2,  C,  R2,  H1,  A1
 H3,  C,  R2,  H1,  A1,    H2,  120.0
 H4,  C,  R2,  H1,  A1,    H2, -120.0
 H5,  H1, R3,  C,   180.0, H2,  0.0

R1=    1.2335773
R2=    1.0874197
A1=  106.2589177
R3=    1.0254984



--link1--
#p  BLYP/6-311+g(3df,2p) scf=tight iop(3/76=0350006500,3/78=0640006400)
extraoverlay

8/10=90/1;9/16=-3/6;

6 H_CH4

0 2
 C
 H1,  C,  R1
 H2,  C,  R2,  H1,  A1
 H3,  C,  R2,  H1,  A1,    H2,  120.0
 H4,  C,  R2,  H1,  A1,    H2, -120.0
 H5,  H1, R3,  C,   180.0, H2,  0.0

R1=      1.1855883
R2=      1.0881861
A1=    107.1894646
R3=      1.0893620



--link1--
#p  BLYP/6-311+g(3df,2p) scf=tight iop(3/76=0350006500,3/78=0640006400)
extraoverlay

8/10=90/1;9/16=-3/6;

7 H_CH4

0 2
 C
 H1,  C,  R1
 H2,  C,  R2,  H1,  A1
 H3,  C,  R2,  H1,  A1,    H2,  120.0
 H4,  C,  R2,  H1,  A1,    H2, -120.0
 H5,  H1, R3,  C,   180.0, H2,  0.0

R1=    1.1508319
R2=    1.0887632
A1=  107.9046011
R3=    1.1645730



--link1--
#p  BLYP/6-311+g(3df,2p) scf=tight iop(3/76=0350006500,3/78=0640006400)
extraoverlay

8/10=90/1;9/16=-3/6;

8 H_CH4

0 2
 C
 H1,  C,  R1
 H2,  C,  R2,  H1,  A1
 H3,  C,  R2,  H1,  A1,    H2,  120.0
 H4,  C,  R2,  H1,  A1,    H2, -120.0
 H5,  H1, R3,  C,   180.0, H2,  0.0

R1=    1.1309560
R2=    1.0890967
A1=  108.3678502
R3=    1.2429439



--link1--
#p  BLYP/6-311+g(3df,2p) scf=tight iop(3/76=0350006500,3/78=0640006400)
extraoverlay

8/10=90/1;9/16=-3/6;

9 H_CH4

0 2
 C
 H1,  C,  R1
 H2,  C,  R2,  H1,  A1
 H3,  C,  R2,  H1,  A1,    H2,  120.0
 H4,  C,  R2,  H1,  A1,    H2, -120.0
 H5,  H1, R3,  C,   180.0, H2,  0.0

R1=    1.1184102 
R2=    1.0892835 
A1=  108.6858161 
R3=    1.3196709 




--link1--
#p  BLYP/6-311+g(3df,2p) scf=tight iop(3/76=0350006500,3/78=0640006400)
extraoverlay

8/10=90/1;9/16=-3/6;

10 H_CH4

0 2
 C
 H1,  C,  R1
 H2,  C,  R2,  H1,  A1
 H3,  C,  R2,  H1,  A1,    H2,  120.0
 H4,  C,  R2,  H1,  A1,    H2, -120.0
 H5,  H1, R3,  C,   180.0, H2,  0.0

R1=    1.1106673
R2=    1.0893972
A1=  108.8910578
R3=    1.3894343



--link1--
#p  BLYP/6-311+g(3df,2p) scf=tight iop(3/76=0350006500,3/78=0640006400)
extraoverlay

8/10=90/1;9/16=-3/6;

11 H_CH4

0 2
 C
 H1,  C,  R1
 H2,  C,  R2,  H1,  A1
 H3,  C,  R2,  H1,  A1,    H2,  120.0
 H4,  C,  R2,  H1,  A1,    H2, -120.0
 H5,  H1, R3,  C,   180.0, H2,  0.0

R1=      1.1048423
R2=      1.0894722
A1=    109.0477475
R3=      1.4572510




--link1--
#p  BLYP/6-311+g(3df,2p) scf=tight iop(3/76=0350006500,3/78=0640006400)
extraoverlay

8/10=90/1;9/16=-3/6;

12 H_CH4

0 2
 C
 H1,  C,  R1
 H2,  C,  R2,  H1,  A1
 H3,  C,  R2,  H1,  A1,    H2,  120.0
 H4,  C,  R2,  H1,  A1,    H2, -120.0
 H5,  H1, R3,  C,   180.0, H2,  0.0

R1=    1.1011996
R2=    1.0895077
A1=  109.1497433
R3=    1.5189100




--link1--
#p  BLYP/6-311+g(3df,2p) scf=tight iop(3/76=0350006500,3/78=0640006400)
extraoverlay

8/10=90/1;9/16=-3/6;

13 H_CH4

0 2
 C
 H1,  C,  R1
 H2,  C,  R2,  H1,  A1
 H3,  C,  R2,  H1,  A1,    H2,  120.0
 H4,  C,  R2,  H1,  A1,    H2, -120.0
 H5,  H1, R3,  C,   180.0, H2,  0.0

R1=    1.0983775
R2=    1.0895280
A1=  109.2299612
R3=    1.5791103




--link1--
#p  BLYP/6-311+g(3df,2p) scf=tight iop(3/76=0350006500,3/78=0640006400)
extraoverlay

8/10=90/1;9/16=-3/6;

14 H_CH4

0 2
 C
 H1,  C,  R1
 H2,  C,  R2,  H1,  A1
 H3,  C,  R2,  H1,  A1,    H2,  120.0
 H4,  C,  R2,  H1,  A1,    H2, -120.0
 H5,  H1, R3,  C,   180.0, H2,  0.0

R1=    1.0964332
R2=    1.0895332
A1=  109.2872905
R3=    1.6368028




--link1--
#p  BLYP/6-311+g(3df,2p) scf=tight iop(3/76=0350006500,3/78=0640006400)
extraoverlay

8/10=90/1;9/16=-3/6;

15 H_CH4

0 2
 C
 H1,  C,  R1
 H2,  C,  R2,  H1,  A1
 H3,  C,  R2,  H1,  A1,    H2,  120.0
 H4,  C,  R2,  H1,  A1,    H2, -120.0
 H5,  H1, R3,  C,   180.0, H2,  0.0

R1=    1.0948537
R2=    1.0895303
A1=  109.3331383
R3=    1.6944209




--link1--
#p  BLYP/6-311+g(3df,2p) scf=tight iop(3/76=0350006500,3/78=0640006400)
extraoverlay

8/10=90/1;9/16=-3/6;

16 H_CH4

0 2
 C
 H1,  C,  R1
 H2,  C,  R2,  H1,  A1
 H3,  C,  R2,  H1,  A1,    H2,  120.0
 H4,  C,  R2,  H1,  A1,    H2, -120.0
 H5,  H1, R3,  C,   180.0, H2,  0.0

R1=      1.0936581
R2=      1.0895218
A1=    109.3674322
R3=      1.7505925



--link1--
#p  BLYP/6-311+g(3df,2p) scf=tight iop(3/76=0350006500,3/78=0640006400)
extraoverlay

8/10=90/1;9/16=-3/6;

17 H_CH4

0 2
 C
 H1,  C,  R1
 H2,  C,  R2,  H1,  A1
 H3,  C,  R2,  H1,  A1,    H2,  120.0
 H4,  C,  R2,  H1,  A1,    H2, -120.0
 H5,  H1, R3,  C,   180.0, H2,  0.0

R1=    1.0927240
R2=    1.0895092
A1=  109.3936979
R3=    1.8059989




--link1--
#p  BLYP/6-311+g(3df,2p) scf=tight iop(3/76=0350006500,3/78=0640006400)
extraoverlay

8/10=90/1;9/16=-3/6;

18 H_CH4

0 2
 C
 H1,  C,  R1
 H2,  C,  R2,  H1,  A1
 H3,  C,  R2,  H1,  A1,    H2,  120.0
 H4,  C,  R2,  H1,  A1,    H2, -120.0
 H5,  H1, R3,  C,   180.0, H2,  0.0

R1=    1.0919913
R2=    1.0894944
A1=  109.4137131
R3=    1.8606469






--link1--
#p  BLYP/6-311+g(3df,2p) scf=tight iop(3/76=0350006500,3/78=0640006400)
extraoverlay

8/10=90/1;9/16=-3/6;

19 H_CH4

0 2
 C
 H1,  C,  R1
 H2,  C,  R2,  H1,  A1
 H3,  C,  R2,  H1,  A1,    H2,  120.0
 H4,  C,  R2,  H1,  A1,    H2, -120.0
 H5,  H1, R3,  C,   180.0, H2,  0.0

R1=    1.0914145
R2=    1.0894784
A1=  109.4288903
R3=    1.9145325




--link1--
#p  BLYP/6-311+g(3df,2p) scf=tight iop(3/76=0350006500,3/78=0640006400)
extraoverlay

8/10=90/1;9/16=-3/6;

20 H_CH4

0 2
 C
 H1,  C,  R1
 H2,  C,  R2,  H1,  A1
 H3,  C,  R2,  H1,  A1,    H2,  120.0
 H4,  C,  R2,  H1,  A1,    H2, -120.0
 H5,  H1, R3,  C,   180.0, H2,  0.0

R1=    1.0909636
R2=    1.0894629
A1=  109.4401980
R3=    1.9674304





--link1--
#p  BLYP/6-311+g(3df,2p) scf=tight iop(3/76=0350006500,3/78=0640006400)
extraoverlay

8/10=90/1;9/16=-3/6;

21 H_CH4

0 2
 C
 H1,  C,  R1
 H2,  C,  R2,  H1,  A1
 H3,  C,  R2,  H1,  A1,    H2,  120.0
 H4,  C,  R2,  H1,  A1,    H2, -120.0
 H5,  H1, R3,  C,   180.0, H2,  0.0

R1=      1.0905960
R2=      1.0894454
A1=    109.4489689
R3=      2.0200889



--link1--
#p  BLYP/6-311+g(3df,2p) scf=tight iop(3/76=0350006500,3/78=0640006400)
extraoverlay

8/10=90/1;9/16=-3/6;

22 H_CH4

0 2
 C
 H1,  C,  R1
 H2,  C,  R2,  H1,  A1
 H3,  C,  R2,  H1,  A1,    H2,  120.0
 H4,  C,  R2,  H1,  A1,    H2, -120.0
 H5,  H1, R3,  C,   180.0, H2,  0.0

R1=    1.0903157
R2=    1.0894303
A1=  109.4551536
R3=    2.0712618



--link1--
#p  BLYP/6-311+g(3df,2p) scf=tight iop(3/76=0350006500,3/78=0640006400)
extraoverlay

8/10=90/1;9/16=-3/6;

23 H_CH4

0 2
 C
 H1,  C,  R1
 H2,  C,  R2,  H1,  A1
 H3,  C,  R2,  H1,  A1,    H2,  120.0
 H4,  C,  R2,  H1,  A1,    H2, -120.0
 H5,  H1, R3,  C,   180.0, H2,  0.0

R1=    1.0900881
R2=    1.0894155
A1=  109.4598832
R3=    2.1222183



--link1--
#p  BLYP/6-311+g(3df,2p) scf=tight iop(3/76=0350006500,3/78=0640006400)
extraoverlay

8/10=90/1;9/16=-3/6;

24 H_CH4

0 2
 C
 H1,  C,  R1
 H2,  C,  R2,  H1,  A1
 H3,  C,  R2,  H1,  A1,    H2,  120.0
 H4,  C,  R2,  H1,  A1,    H2, -120.0
 H5,  H1, R3,  C,   180.0, H2,  0.0

R1=    1.0899094
R2=    1.0894016
A1=  109.4631362
R3=    2.1721409



--link1--
#p  BLYP/6-311+g(3df,2p) scf=tight iop(3/76=0350006500,3/78=0640006400)
extraoverlay

8/10=90/1;9/16=-3/6;

25 H_CH4

0 2
 C
 H1,  C,  R1
 H2,  C,  R2,  H1,  A1
 H3,  C,  R2,  H1,  A1,    H2,  120.0
 H4,  C,  R2,  H1,  A1,    H2, -120.0
 H5,  H1, R3,  C,   180.0, H2,  0.0

R1=    1.0897657
R2=    1.0893888
A1=  109.4655807
R3=    2.2217147



--link1--
#p  BLYP/6-311+g(3df,2p) scf=tight iop(3/76=0350006500,3/78=0640006400)
extraoverlay

8/10=90/1;9/16=-3/6;

26 H_CH4

0 2
 C
 H1,  C,  R1
 H2,  C,  R2,  H1,  A1
 H3,  C,  R2,  H1,  A1,    H2,  120.0
 H4,  C,  R2,  H1,  A1,    H2, -120.0
 H5,  H1, R3,  C,   180.0, H2,  0.0

R1=      1.0896527
R2=      1.0893770
A1=    109.4672472
R3=      2.2704096



--link1--
#p  BLYP/6-311+g(3df,2p) scf=tight iop(3/76=0350006500,3/78=0640006400)
extraoverlay

8/10=90/1;9/16=-3/6;

27 H_CH4

0 2
 C
 H1,  C,  R1
 H2,  C,  R2,  H1,  A1
 H3,  C,  R2,  H1,  A1,    H2,  120.0
 H4,  C,  R2,  H1,  A1,    H2, -120.0
 H5,  H1, R3,  C,   180.0, H2,  0.0

R1=    1.0895634
R2=    1.0893663
A1=  109.4683737
R3=    2.3184192



--link1--
#p  BLYP/6-311+g(3df,2p) scf=tight iop(3/76=0350006500,3/78=0640006400)
extraoverlay

8/10=90/1;9/16=-3/6;

28 H_CH4

0 2
 C
 H1,  C,  R1
 H2,  C,  R2,  H1,  A1
 H3,  C,  R2,  H1,  A1,    H2,  120.0
 H4,  C,  R2,  H1,  A1,    H2, -120.0
 H5,  H1, R3,  C,   180.0, H2,  0.0

R1=    1.0894948
R2=    1.0893567
A1=  109.4690454
R3=    2.3655913



--link1--
#p  BLYP/6-311+g(3df,2p) scf=tight iop(3/76=0350006500,3/78=0640006400)
extraoverlay

8/10=90/1;9/16=-3/6;

29 H_CH4

0 2
 C
 H1,  C,  R1
 H2,  C,  R2,  H1,  A1
 H3,  C,  R2,  H1,  A1,    H2,  120.0
 H4,  C,  R2,  H1,  A1,    H2, -120.0
 H5,  H1, R3,  C,   180.0, H2,  0.0

R1=    1.0894364
R2=    1.0893480
A1=  109.4695831
R3=    2.4127383



--link1--
#p  BLYP/6-311+g(3df,2p) scf=tight iop(3/76=0350006500,3/78=0640006400)
extraoverlay

8/10=90/1;9/16=-3/6;

30 H_CH4

0 2
 C
 H1,  C,  R1
 H2,  C,  R2,  H1,  A1
 H3,  C,  R2,  H1,  A1,    H2,  120.0
 H4,  C,  R2,  H1,  A1,    H2, -120.0
 H5,  H1, R3,  C,   180.0, H2,  0.0

R1=    1.0893945
R2=    1.0893403
A1=  109.4698041
R3=    2.4585269




--link1--
#p  BLYP/6-311+g(3df,2p) scf=tight iop(3/76=0350006500,3/78=0640006400)
extraoverlay

8/10=90/1;9/16=-3/6;

31 H_CH4

0 2
 C
 H1,  C,  R1
 H2,  C,  R2,  H1,  A1
 H3,  C,  R2,  H1,  A1,    H2,  120.0
 H4,  C,  R2,  H1,  A1,    H2, -120.0
 H5,  H1, R3,  C,   180.0, H2,  0.0

R1=      1.0893610
R2=      1.0893333
A1=    109.4698500
R3=      2.5038482



--link1--
#p  BLYP/6-311+g(3df,2p) scf=tight iop(3/76=0350006500,3/78=0640006400)
extraoverlay

8/10=90/1;9/16=-3/6;

32 H_CH4

0 2
 C
 H1,  C,  R1
 H2,  C,  R2,  H1,  A1
 H3,  C,  R2,  H1,  A1,    H2,  120.0
 H4,  C,  R2,  H1,  A1,    H2, -120.0
 H5,  H1, R3,  C,   180.0, H2,  0.0

R1=    1.0893351
R2=    1.0893271
A1=  109.4698503
R3=    2.5486965




--link1--
#p  BLYP/6-311+g(3df,2p) scf=tight iop(3/76=0350006500,3/78=0640006400)
extraoverlay

8/10=90/1;9/16=-3/6;

33 H_CH4

0 2
 C
 H1,  C,  R1
 H2,  C,  R2,  H1,  A1
 H3,  C,  R2,  H1,  A1,    H2,  120.0
 H4,  C,  R2,  H1,  A1,    H2, -120.0
 H5,  H1, R3,  C,   180.0, H2,  0.0

R1=    1.0893153
R2=    1.0893216
A1=  109.4697681
R3=    2.5928912




--link1--
#p  BLYP/6-311+g(3df,2p) scf=tight iop(3/76=0350006500,3/78=0640006400)
extraoverlay

8/10=90/1;9/16=-3/6;

34 H_CH4

0 2
 C
 H1,  C,  R1
 H2,  C,  R2,  H1,  A1
 H3,  C,  R2,  H1,  A1,    H2,  120.0
 H4,  C,  R2,  H1,  A1,    H2, -120.0
 H5,  H1, R3,  C,   180.0, H2,  0.0

R1=    1.0893004
R2=    1.0893167
A1=  109.4696400
R3=    2.6365319




--link1--
#p  BLYP/6-311+g(3df,2p) scf=tight iop(3/76=0350006500,3/78=0640006400)
extraoverlay

8/10=90/1;9/16=-3/6;

35 H_CH4

0 2
 C
 H1,  C,  R1
 H2,  C,  R2,  H1,  A1
 H3,  C,  R2,  H1,  A1,    H2,  120.0
 H4,  C,  R2,  H1,  A1,    H2, -120.0
 H5,  H1, R3,  C,   180.0, H2,  0.0

R1=    1.0892892
R2=    1.0893123
A1=  109.4694856
R3=    2.6796539



--link1--
#p  BLYP/6-311+g(3df,2p) scf=tight iop(3/76=0350006500,3/78=0640006400)
extraoverlay

8/10=90/1;9/16=-3/6;

36 H_CH4

0 2
 C
 H1,  C,  R1
 H2,  C,  R2,  H1,  A1
 H3,  C,  R2,  H1,  A1,    H2,  120.0
 H4,  C,  R2,  H1,  A1,    H2, -120.0
 H5,  H1, R3,  C,   180.0, H2,  0.0

R1=      1.0892816
R2=      1.0893086
A1=    109.4693237
R3=      2.7200565






--link1--
#p  BLYP/6-311+g(3df,2p) scf=tight iop(3/76=0350006500,3/78=0640006400)
extraoverlay

8/10=90/1;9/16=-3/6;

37 H_CH4

0 2
 C
 H1,  C,  R1
 H2,  C,  R2,  H1,  A1
 H3,  C,  R2,  H1,  A1,    H2,  120.0
 H4,  C,  R2,  H1,  A1,    H2, -120.0
 H5,  H1, R3,  C,   180.0, H2,  0.0

R1=    1.0892770 
R2=    1.0893058 
A1=  109.4691773 
R3=    2.7548078 



--link1--
#p  BLYP/6-311+g(3df,2p) scf=tight iop(3/76=0350006500,3/78=0640006400)
extraoverlay

8/10=90/1;9/16=-3/6;

38 H_CH4

0 2
 C
 H1,  C,  R1
 H2,  C,  R2,  H1,  A1
 H3,  C,  R2,  H1,  A1,    H2,  120.0
 H4,  C,  R2,  H1,  A1,    H2, -120.0
 H5,  H1, R3,  C,   180.0, H2,  0.0

R1=    1.0892739
R2=    1.0893035
A1=  109.4690519
R3=    2.7847248




--link1--
#p  BLYP/6-311+g(3df,2p) scf=tight iop(3/76=0350006500,3/78=0640006400)
extraoverlay

8/10=90/1;9/16=-3/6;

39 H_CH4

0 2
 C
 H1,  C,  R1
 H2,  C,  R2,  H1,  A1
 H3,  C,  R2,  H1,  A1,    H2,  120.0
 H4,  C,  R2,  H1,  A1,    H2, -120.0
 H5,  H1, R3,  C,   180.0, H2,  0.0

R1=    1.0892717
R2=    1.0893016
A1=  109.4689438
R3=    2.8108342



--link1--
#p  BLYP/6-311+g(3df,2p) scf=tight iop(3/76=0350006500,3/78=0640006400)
extraoverlay

8/10=90/1;9/16=-3/6;

40 H_CH4

0 2
 C
 H1,  C,  R1
 H2,  C,  R2,  H1,  A1
 H3,  C,  R2,  H1,  A1,    H2,  120.0
 H4,  C,  R2,  H1,  A1,    H2, -120.0
 H5,  H1, R3,  C,   180.0, H2,  0.0

R1=    1.0892701
R2=    1.0893001
A1=  109.4688498
R3=    2.8338920




--link1--
#p  BLYP/6-311+g(3df,2p) scf=tight iop(3/76=0350006500,3/78=0640006400)
extraoverlay

8/10=90/1;9/16=-3/6;

41 H_CH4

0 2
 C
 H1,  C,  R1
 H2,  C,  R2,  H1,  A1
 H3,  C,  R2,  H1,  A1,    H2,  120.0
 H4,  C,  R2,  H1,  A1,    H2, -120.0
 H5,  H1, R3,  C,   180.0, H2,  0.0

R1=      1.0892690
R2=      1.0892989
A1=    109.4687684
R3=      2.8544527



--link1--
#p  BLYP/6-311+g(3df,2p) scf=tight iop(3/76=0350006500,3/78=0640006400)
extraoverlay

8/10=90/1;9/16=-3/6;

42 H_CH4

0 2
 C
 H1,  C,  R1
 H2,  C,  R2,  H1,  A1
 H3,  C,  R2,  H1,  A1,    H2,  120.0
 H4,  C,  R2,  H1,  A1,    H2, -120.0
 H5,  H1, R3,  C,   180.0, H2,  0.0

R1=    1.0892686
R2=    1.0892977
A1=  109.4686910
R3=    2.8729341



--link1--
#p  BLYP/6-311+g(3df,2p) scf=tight iop(3/76=0350006500,3/78=0640006400)
extraoverlay

8/10=90/1;9/16=-3/6;

43 H_CH4

0 2
 C
 H1,  C,  R1
 H2,  C,  R2,  H1,  A1
 H3,  C,  R2,  H1,  A1,    H2,  120.0
 H4,  C,  R2,  H1,  A1,    H2, -120.0
 H5,  H1, R3,  C,   180.0, H2,  0.0

R1=    1.0892678
R2=    1.0892967
A1=  109.4686146
R3=    2.8896589



--link1--
#p  BLYP/6-311+g(3df,2p) scf=tight iop(3/76=0350006500,3/78=0640006400)
extraoverlay

8/10=90/1;9/16=-3/6;

44 H_CH4

0 2
 C
 H1,  C,  R1
 H2,  C,  R2,  H1,  A1
 H3,  C,  R2,  H1,  A1,    H2,  120.0
 H4,  C,  R2,  H1,  A1,    H2, -120.0
 H5,  H1, R3,  C,   180.0, H2,  0.0

R1=    1.0892673
R2=    1.0892958
A1=  109.4685627
R3=    2.9048816



--link1--
#p  BLYP/6-311+g(3df,2p) scf=tight iop(3/76=0350006500,3/78=0640006400)
extraoverlay

8/10=90/1;9/16=-3/6;

45 H_CH4

0 2
 C
 H1,  C,  R1
 H2,  C,  R2,  H1,  A1
 H3,  C,  R2,  H1,  A1,    H2,  120.0
 H4,  C,  R2,  H1,  A1,    H2, -120.0
 H5,  H1, R3,  C,   180.0, H2,  0.0

R1=    1.0892669
R2=    1.0892951
A1=  109.4685234
R3=    2.9188057




--link1--
#p  BLYP/6-311+g(3df,2p) scf=tight iop(3/76=0350006500,3/78=0640006400)
extraoverlay

8/10=90/1;9/16=-3/6;

46 H_CH4

0 2
 C
 H1,  C,  R1
 H2,  C,  R2,  H1,  A1
 H3,  C,  R2,  H1,  A1,    H2,  120.0
 H4,  C,  R2,  H1,  A1,    H2, -120.0
 H5,  H1, R3,  C,   180.0, H2,  0.0

R1=      1.0892662
R2=      1.0892944
A1=    109.4684732
R3=      2.9315978




--link1--
#p  BLYP/6-311+g(3df,2p) scf=tight iop(3/76=0350006500,3/78=0640006400)
extraoverlay

8/10=90/1;9/16=-3/6;

47 H_CH4

0 2
 C
 H1,  C,  R1
 H2,  C,  R2,  H1,  A1
 H3,  C,  R2,  H1,  A1,    H2,  120.0
 H4,  C,  R2,  H1,  A1,    H2, -120.0
 H5,  H1, R3,  C,   180.0, H2,  0.0

R1=    1.0892663
R2=    1.0892938
A1=  109.4684284
R3=    2.9433948



--link1--
#p  BLYP/6-311+g(3df,2p) scf=tight iop(3/76=0350006500,3/78=0640006400)
extraoverlay

8/10=90/1;9/16=-3/6;

48 H_CH4

0 2
 C
 H1,  C,  R1
 H2,  C,  R2,  H1,  A1
 H3,  C,  R2,  H1,  A1,    H2,  120.0
 H4,  C,  R2,  H1,  A1,    H2, -120.0
 H5,  H1, R3,  C,   180.0, H2,  0.0

R1=    1.0892661
R2=    1.0892931
A1=  109.4683880
R3=    2.9543112



--link1--
#p  BLYP/6-311+g(3df,2p) scf=tight iop(3/76=0350006500,3/78=0640006400)
extraoverlay

8/10=90/1;9/16=-3/6;

49 H_CH4

0 2
 C
 H1,  C,  R1
 H2,  C,  R2,  H1,  A1
 H3,  C,  R2,  H1,  A1,    H2,  120.0
 H4,  C,  R2,  H1,  A1,    H2, -120.0
 H5,  H1, R3,  C,   180.0, H2,  0.0

R1=    1.0892661
R2=    1.0892926
A1=  109.4683527
R3=    2.9644433




