$molecule
0    2
C
H1,  C,  R1
H2,  C,  R2,  H1,  A1
H3,  C,  R2,  H1,  A1,    H2,  120.0
H4,  C,  R2,  H1,  A1,    H2, -120.0
H5,  H1, R3,  C,   180.0, H2,  0.0
 
R1=    1.1184102
R2=    1.0892835
A1=  108.6858161
R3=    1.3196709
$end
   
$rem
mem_static = 200
mem_total  = 7500
exchange = b3lyp
basis = 6-311+g(3df,2p)
scf_convergence = 7
symmetry = false
xc_grid = 000075000302
$end
