$molecule
0    1
    C      0.00000000     -0.66757818     -1.76775602
    C      0.00000000      0.66757818     -1.76775602
    @C      0.00000000      0.00000000      3.25740731
    @C      0.00000000      0.00000000      2.05014395
    H     -0.92362127      1.23225337     -1.76928212
    H      0.92362127      1.23225337     -1.76928212
    H      0.92362127     -1.23225337     -1.76928212
    H     -0.92362127     -1.23225337     -1.76928212
    @H      0.00000000      0.00000000      0.98425568
    @H      0.00000000      0.00000000      4.32083359
$end
   
$rem
mem_static = 200
mem_total  = 7500
exchange = b3lyp
basis = G3Large
max_scf_cycles = 50
scf_convergence = 7
symmetry = false
xc_grid = 000075000302
$end
