$molecule
0    1
    C      0.00000000      0.00000000      1.05872819
    C      0.00000000     -1.20600876      1.75736735
    C      0.00000000     -1.20717706      3.15128399
    C      0.00000000      0.00000000      3.84826887
    C      0.00000000      1.20717706      3.15128399
    C      0.00000000      1.20600876      1.75736735
    @C     -1.39406375      0.00000000     -2.45446048
    @C     -0.69704702      1.20723812     -2.45493587
    @C      0.69704702      1.20723812     -2.45493587
    @C      1.39406375      0.00000000     -2.45446048
    @C      0.69704702     -1.20723812     -2.45493587
    @C     -0.69704702     -1.20723812     -2.45493587
    H      0.00000000      0.00000000     -0.02188791
    H      0.00000000     -2.14163943      1.21411459
    H      0.00000000     -2.14356623      3.69268893
    H      0.00000000      0.00000000      4.92984409
    H      0.00000000      2.14356623      3.69268893
    H      0.00000000      2.14163943      1.21411459
    @H     -2.47540013      0.00000000     -2.45063009
    @H     -1.23823249      2.14356623     -2.45398458
    @H      1.23823249      2.14356623     -2.45398458
    @H      2.47540013      0.00000000     -2.45063009
    @H      1.23823249     -2.14356623     -2.45398458
    @H     -1.23823249     -2.14356623     -2.45398458
$end
   
$rem
mem_static = 200
mem_total  = 7500
exchange = b3lyp
basis = G3Large
max_scf_cycles = 50
scf_convergence = 7
symmetry = false
xc_grid = 000075000302
$end
