$molecule
0    1
    @C     -2.04861866      0.94853107     -0.14411943
    @C     -1.50459365      0.03277290      0.75922472
    @C     -2.18909204     -1.14482488      1.05259947
    @C     -3.41583424     -1.41845818      0.45381805
    @C     -3.95588617     -0.49916975     -0.44487140
    @C     -3.27856295      0.67764598     -0.74538130
    C      1.99546281      0.97118948      0.11378065
    C      1.54889056      0.25437096     -0.99318407
    C      2.20022479     -0.92229184     -1.34857992
    C      3.29005578     -1.38187581     -0.61063226
    C      3.72817241     -0.65500537      0.49287557
    C      3.08097200      0.52303483      0.86028084
    @H     -3.68467967      1.39811981     -1.44152794
    @H     -0.56532471      2.14933739     -0.04222940
    H      1.74277264      2.53343517      1.19394288
    @H     -0.55216361      0.24134186      1.22848818
    @H     -1.75662650     -1.84746085      1.75207373
    @H     -3.94397991     -2.33270238      0.68402638
    @H     -4.90858668     -0.69760919     -0.91690064
    H      0.70303895      0.62148336     -1.55762724
    H      1.85063433     -1.48028819     -2.20595342
    H      3.79151136     -2.29646936     -0.89243535
    H      4.57225183     -1.00032544      1.07349529
    H      3.41837384      1.08772279      1.72118093
    @O     -1.43001724      2.11453774     -0.47888924
    O      1.31160471      2.12295791      0.43654492
$end
   
$rem
mem_static = 200
mem_total  = 7500
exchange = b3lyp
basis = G3Large
max_scf_cycles = 50
scf_convergence = 7
symmetry = false
xc_grid = 000075000302
$end
