$molecule
0    1
    O     -1.58686487     -1.52597298      0.28181081
    C     -2.56286487     -2.05097298     -0.20718919
    O     -2.79586487     -3.37597298     -0.16118919
    H     -2.05386487     -3.76397299      0.32681081
    C     -3.66486488     -1.33697298     -0.96518919
    H     -4.61686488     -1.65097298     -0.54418919
    H     -3.63086488     -1.66497298     -2.00218920
    N     -3.53786488      0.08902703     -0.88518919
    H     -2.81786487      0.54102703     -1.44018919
    C     -3.79986488      0.67602703      0.32181081
    O     -4.41486488      0.12102703      1.22081081
    C     -3.17386488      2.05402703      0.47181081
    H     -3.63386488      2.55902704      1.31381082
    H     -3.29486488      2.64602704     -0.43418919
    N     -1.75586487      1.88102703      0.72281081
    H     -1.42486487      1.62502703      1.64481082
    C     -0.89986487      1.59602703     -0.28018919
    O     -1.20686487      1.65602703     -1.47318919
    C      0.49813514      1.19902703      0.18481081
    N      0.41913514      0.63902703      1.53181082
    H      1.35313514      0.53302703      1.90981082
    H      0.02013514     -0.29397297      1.47181082
    H      1.08213514      2.12202703      0.24981081
    C      1.14813514      0.28802703     -0.86618919
    H      0.53513514     -0.60897297     -0.96518919
    H      1.13713514      0.80302703     -1.82518920
    C      2.54613514     -0.07397297     -0.46318919
    C      2.81513514     -1.27397298      0.20181081
    H      2.00613514     -1.97397298      0.37181081
    C      4.10613515     -1.58197298      0.62981081
    H      4.29613515     -2.51797298      1.13781081
    C      5.14813515     -0.68697298      0.40081081
    H      6.15113515     -0.92497298      0.72981081
    C      4.89413515      0.51202703     -0.26218919
    H      5.70113515      1.20802703     -0.45118919
    C      3.60313515      0.81402703     -0.68818919
    H      3.41213515      1.74402703     -1.21018919
$end
   
$rem
mem_static = 200
mem_total  = 7500
exchange = b3lyp
basis = G3Large
max_scf_cycles = 50
scf_convergence = 7
symmetry = false
xc_grid = 000075000302
$end
