$molecule
0    1
    O     -2.28983785      1.62324325      0.37259460
    C     -3.41983785      1.88324325      0.02659459
    O     -3.99983785      3.08324325      0.22459460
    H     -3.34083785      3.62924325      0.67859460
    C     -4.36383785      0.94024325     -0.69240541
    H     -4.57683785      1.35224325     -1.67640541
    H     -5.29583785      0.90824325     -0.13240541
    N     -3.81683785     -0.38075676     -0.80640541
    H     -3.05983785     -0.52575676     -1.46840541
    C     -3.73283785     -1.12575676      0.33759460
    O     -4.37583785     -0.88275676      1.34959460
    C     -2.69383785     -2.23375676      0.26059460
    H     -2.72883785     -2.74575677     -0.69940541
    H     -2.86583785     -2.93675677      1.06859460
    N     -1.38383784     -1.62875676      0.41159460
    H     -1.04983784     -1.35375676      1.32759460
    C     -0.79083784     -0.98275676     -0.61340541
    O     -1.19283784     -1.02675676     -1.77940541
    C      0.46416216     -0.21875676     -0.23240541
    N      0.41216216      0.17024324      1.17259460
    H      1.32216217      0.51324324      1.45959460
    H     -0.24783784      0.93424325      1.28059460
    H      0.51616216      0.62524325     -0.92540541
    C      1.67816217     -1.12475676     -0.48140541
    H      1.59716217     -1.99475676      0.17159460
    H      1.63416217     -1.46775676     -1.51640541
    C      2.96316217     -0.39475676     -0.22040541
    C      3.64616217     -0.54875676      0.98859460
    H      3.26516217     -1.24575676      1.72559460
    C      4.80916218      0.17424324      1.24959460
    H      5.32816218      0.03924324      2.18959460
    C      5.30516218      1.06324325      0.29959460
    H      6.20916218      1.62224325      0.49759460
    C      4.63316218      1.22424325     -0.91240541
    H      5.01716218      1.90724325     -1.65740541
    C      3.47116217      0.50124324     -1.16740541
    H      2.95416217      0.62424325     -2.11140541
$end
   
$rem
mem_static = 200
mem_total  = 7500
exchange = b3lyp
basis = G3Large
max_scf_cycles = 50
scf_convergence = 7
symmetry = false
xc_grid = 000075000302
$end
