$molecule
0    1
    O      3.16943244     -1.40921622      0.24643243
    C      4.20043245     -0.98021622     -0.21556757
    O      5.36143245     -1.66921622     -0.21956757
    H      5.16943245     -2.51321622      0.21543243
    C      4.37743245      0.37078378     -0.87856757
    H      4.67143245      0.20978378     -1.91456757
    H      5.18843245      0.89078379     -0.37456757
    N      3.18143244      1.15978379     -0.80756757
    H      2.38043244      0.86078379     -1.35756757
    C      2.86843244      1.72978379      0.39343243
    O      3.66943244      1.87978379      1.30543244
    C      1.40043244      2.11278379      0.51143243
    H      1.03943244      2.56878379     -0.40856757
    H      1.28443244      2.80278379      1.34143244
    N      0.61743243      0.91878379      0.76643243
    H      0.51743243      0.54278379      1.70043244
    C      0.31243243      0.05778378     -0.21856757
    O      0.53243243      0.27478378     -1.41556757
    C     -0.31056757     -1.25321622      0.25043243
    N     -0.62756757     -1.20121622      1.67543244
    H     -0.60756757     -2.13121622      2.07143244
    H     -1.56956757     -0.84521622      1.80243244
    H      0.48843243     -1.98521622      0.11243243
    C     -1.48856757     -1.62421622     -0.66856757
    H     -1.14056757     -1.57021622     -1.69956757
    H     -1.77956757     -2.65421622     -0.45656757
    C     -2.65856758     -0.70921622     -0.45256757
    C     -3.69656758     -1.06921622      0.41343243
    H     -3.68256758     -2.04921622      0.87643244
    C     -4.75456758     -0.19821622      0.66943243
    H     -5.55056759     -0.49821622      1.33843244
    C     -4.78756758      1.05278379      0.05943243
    H     -5.60756759      1.73078379      0.25243243
    C     -3.76256758      1.42178379     -0.81156757
    H     -3.78756758      2.38778379     -1.29656757
    C     -2.70656758      0.55078379     -1.06456757
    H     -1.91156757      0.83678379     -1.74156757
$end
   
$rem
mem_static = 200
mem_total  = 7500
exchange = b3lyp
basis = G3Large
max_scf_cycles = 50
scf_convergence = 7
symmetry = false
xc_grid = 000075000302
$end
