%nproc=8
%chk=F224.chk
#p b3lyp/6-311+G(d,p) opt freq

H_001_CClN

0 1
 C                  0.00000000    0.00000000   -0.66012300
 N                  0.00000000    0.00000000   -1.81563700
 Cl                 0.00000000    0.00000000    0.98060000




--link1--
%nproc=8
%chk=F230.chk
#p b3lyp/6-311+G(d,p) opt freq

H_007_C2H3Cl3

0 1
 C                 -0.00003400   -0.00005500    0.25509900
 C                 -0.00038600   -0.00061100    1.77134100
 Cl                 0.78290800    1.50432700   -0.36373900
 Cl                -1.69403200   -0.07403900   -0.36430500
 Cl                 0.91136500   -1.42991800   -0.36424900
 H                 -0.47532000   -0.91188800    2.13620700
 H                 -0.55216700    0.86595500    2.13692500
 H                  1.02590700    0.04363600    2.13721000







--link1--
%nproc=8
%chk=F234.chk
#p b3lyp/6-311+G(d,p) opt freq

H_011_C2H5NO2

0 1
 C                 -1.88231400    0.10466100   -0.00160500
 C                 -0.63512600   -0.75384100    0.00214400
 N                  0.65735200    0.05213700    0.00011500
 O                  0.58572900    1.26982700    0.00098500
 O                  1.69226100   -0.59694600   -0.00168300
 H                 -2.75574700   -0.55282500    0.00033600
 H                 -1.92909900    0.73832900   -0.88771800
 H                 -1.92994600    0.74483300    0.87974000
 H                 -0.55243100   -1.39489800   -0.87652500
 H                 -0.55352000   -1.38836700    0.88570600




--link1--
%nproc=8
%chk=F235.chk
#p b3lyp/6-311+G(d,p) opt freq

H_012_C2H5NO3

0 1
 N                  1.15715100   -0.02428200   -0.00014100
 O                 -0.16439900   -0.53233200   -0.00006700
 O                  1.29329600    1.17731200    0.00006800
 O                  1.98969300   -0.88836600    0.00008700
 C                 -1.20336500    0.48450900   -0.00003200
 C                 -2.51618100   -0.27412700    0.00005700
 H                 -3.34107000    0.44293000    0.00008400
 H                 -2.60703100   -0.90323700    0.88731300
 H                 -2.60712700   -0.90328100   -0.88715800
 H                 -1.08818100    1.10916100   -0.88782800
 H                 -1.08808400    1.10920300    0.88772300



--link1--
%nproc=8
%chk=F243.chk
#p b3lyp/6-311+G(d,p) opt freq

test

0 1
 C                 -0.57562700   -0.07769800    0.00000000
 C                 -0.57562700   -0.90837200    1.27366500
 C                 -0.57562700   -0.90837200   -1.27366500
 Cl                 0.89851500    1.02891200    0.00000000
 H                 -0.56968200   -0.27507700   -2.16204200
 H                 -1.47615800   -1.53096300   -1.30064500
 H                  0.29687300   -1.56507600   -1.31017000
 H                 -0.56968200   -0.27507700    2.16204200
 H                  0.29687300   -1.56507600    1.31017000
 H                 -1.47615800   -1.53096300    1.30064500
 H                 -1.41552400    0.61737200    0.00000000


--link1--
%nproc=8
%chk=F244.chk
#p b3lyp/6-311+G(d,p) opt freq

test

0 1
 C                  0.11754900   -0.78388200    0.00000000
 C                  0.00000000    0.72830500    0.00000000
 C                 -1.46269500    1.18697000    0.00000000
 F                  1.47012200   -1.16719500    0.00000000
 H                 -1.52791500    2.27721000    0.00000000
 H                 -1.99635500    0.82423800    0.88380200
 H                 -1.99635500    0.82423800   -0.88380200
 H                  0.51982600    1.12065200   -0.87962200
 H                  0.51982600    1.12065200    0.87962200
 H                 -0.33962100   -1.22529700   -0.89081800
 H                 -0.33962100   -1.22529700    0.89081800




--link1--
%nproc=8
%chk=F246.chk
#p b3lyp/6-311+G(d,p) opt freq

test

0 1
 C                 -0.19134400   -0.35410000    0.51949800
 C                 -1.22646700    0.24260800   -0.43308400
 C                 -2.65213200   -0.08438500    0.02079600
 N                  1.21135800   -0.01044000    0.06781700
 O                  1.52110500    1.17182000    0.07603600
 O                  1.93600700   -0.92851400   -0.28632400
 H                 -3.38025000    0.34585500   -0.67030500
 H                 -2.85727400    0.32275300    1.01519500
 H                 -2.82584400   -1.16370300    0.05631100
 H                 -1.05390400   -0.15165700   -1.43943500
 H                 -1.08001700    1.32408200   -0.47850600
 H                 -0.23414800   -1.44079500    0.55841500
 H                 -0.28531200    0.06536100    1.52265000


--link1--
%nproc=8
%chk=F247.chk
#p b3lyp/6-311+G(d,p) opt freq

test

0 1
 C                  1.27506600    1.27757600    0.02804500
 C                  0.60189100    0.00080100   -0.46575800
 C                  1.27584100   -1.27706100    0.02406100
 N                 -0.85224800   -0.00025500    0.01511100
 O                 -1.04448300   -0.00322300    1.22148000
 O                 -1.72733500    0.00204800   -0.83787700
 H                  0.75008400   -2.16573400   -0.33183800
 H                  1.31197200   -1.30109200    1.11433100
 H                  2.29778900   -1.30929800   -0.36085700
 H                  0.74868400    2.16701500   -0.32500700
 H                  2.29696100    1.31172400   -0.35684500
 H                  1.31128700    1.29816400    1.11838500
 H                  0.50672100    0.00250900   -1.55085200


--link1--
%nproc=8
%chk=F248.chk
#p b3lyp/6-311+G(d,p) opt freq

test

0 1
 N                 -1.71536800    0.03622000    0.00000500
 O                 -0.45368400   -0.60473000    0.00000200
 O                 -1.72726800    1.24564400   -0.00000200
 O                 -2.63267200   -0.73785000   -0.00000400
 C                  0.68366600    0.29804700    0.00000200
 C                  1.91987300   -0.58810900   -0.00000100
 C                  3.20395800    0.24880100   -0.00000100
 H                  4.08295200   -0.39924700   -0.00000300
 H                  3.26467700    0.89007700    0.88413800
 H                  3.26467500    0.89007900   -0.88414000
 H                  1.89290900   -1.23816400   -0.87920700
 H                  1.89291100   -1.23816600    0.87920400
 H                  0.63673000    0.93246700    0.88822400
 H                  0.63672800    0.93246900   -0.88821800


--link1--
%nproc=8
%chk=F249.chk
#p b3lyp/6-311+G(d,p) opt freq

test

0 1
 N                  1.37527500   -0.06510000    0.04165300
 O                  0.11766200   -0.62461200   -0.28097600
 O                  1.40125900    0.87887000    0.79806000
 O                  2.28699500   -0.63336400   -0.49422900
 C                 -1.05719000    0.06624900    0.26964000
 C                 -2.14221900   -1.00061700    0.26546300
 C                 -1.39160900    1.28860600   -0.57331400
 H                 -2.28319900    1.77701800   -0.17104800
 H                 -1.59505900    0.99734700   -1.60677800
 H                 -0.57785400    2.01487500   -0.56110900
 H                 -3.06051400   -0.58283500    0.68541100
 H                 -1.84583800   -1.86100200    0.86761800
 H                 -2.35248000   -1.34062800   -0.75119500
 H                 -0.81319200    0.35833500    1.29195500



--link1--
%nproc=8
%chk=F250.chk
#p b3lyp/6-311+G(d,p) opt freq

test

0 1
 C                 -0.06330200    0.56975800    0.07936800
 C                  1.01096900   -0.50686500   -0.06935800
 C                  2.42823100    0.07259900    0.00861200
 S                 -1.79320100   -0.04527000   -0.07431600
 H                 -1.75876600   -0.87824100    0.98658900
 H                  3.17887700   -0.71606100   -0.08898400
 H                  2.60102000    0.57899100    0.96327300
 H                  2.60485900    0.79936100   -0.79027000
 H                  0.86788100   -1.02634600   -1.02158200
 H                  0.87850000   -1.25956300    0.71583700
 H                  0.02479800    1.31372600   -0.71662400
 H                  0.03866700    1.09950900    1.02908600


--link1--
%nproc=8
%chk=F251.chk
#p b3lyp/6-311+G(d,p) opt freq

test

0 1
 C                  0.41831600    0.01605200    0.40184200
 C                  1.09334900   -1.26482600   -0.09084700
 C                  1.09264700    1.27400100   -0.14197200
 S                 -1.37203700   -0.08201000   -0.09024200
 H                 -1.74302000    1.11180400    0.41677200
 H                  0.61393400    2.18262800    0.23155900
 H                  1.05397300    1.29532000   -1.23418700
 H                  2.14375800    1.29932300    0.16675400
 H                  0.61683000   -2.15583500    0.32426900
 H                  2.14435900   -1.27024600    0.21240200
 H                  1.05649800   -1.33267500   -1.18202300
 H                  0.44038300    0.03047200    1.49418100


--link1--
%nproc=8
%chk=F252.chk
#p b3lyp/6-311+G(d,p) opt freq

test

0 1
 S                  0.00000000    0.81782900    0.00000000
 C                 -1.82274200    0.89674800    0.00000000
 C                  0.23338000   -1.00372000    0.00000000
 C                  1.72066300   -1.34799100    0.00000000
 H                 -2.09597700    1.95247500    0.00000000
 H                 -2.23832600    0.42633300    0.89345700
 H                 -2.23832600    0.42633300   -0.89345700
 H                  1.85611500   -2.43311700    0.00000000
 H                  2.22077000   -0.94618500    0.88473600
 H                  2.22077000   -0.94618500   -0.88473600
 H                 -0.25641300   -1.41756800   -0.88575800
 H                 -0.25641300   -1.41756800    0.88575800




--link1--
%nproc=8
%chk=F253.chk
#p b3lyp/6-311+G(d,p) opt freq

test

0 1
 N                  1.89944900    0.17407200   -0.08636100
 H                  2.65800200   -0.49930900   -0.09798000
 H                  2.05994400    0.79238100    0.70300000
 C                  0.59701300   -0.49354000    0.02907500
 C                 -0.54595600    0.51787600   -0.06019300
 C                 -1.92925100   -0.13271000    0.02386400
 H                 -2.72349100    0.61569400   -0.03897000
 H                 -2.06017800   -0.67547300    0.96544000
 H                 -2.08213600   -0.84553200   -0.79271400
 H                 -0.44307100    1.07548900   -0.99642800
 H                 -0.43667100    1.25121600    0.74931000
 H                  0.48623000   -1.07887800    0.95729700
 H                  0.51439400   -1.20384600   -0.80090300


--link1--
%nproc=8
%chk=F254.chk
#p b3lyp/6-311+G(d,p) opt freq

test

0 1
 N                 -0.13765700    1.42982400    0.05287300
 H                 -0.10854200    1.50145400    1.06686600
 H                 -1.02786100    1.81606700   -0.24641300
 C                 -0.00272800    0.02658200   -0.36910800
 C                 -1.14310900   -0.88565400    0.11182400
 C                  1.36235900   -0.49588100    0.08273900
 H                  1.52966200   -1.51788500   -0.26750700
 H                  1.42933100   -0.50493700    1.17703500
 H                  2.16275200    0.14097200   -0.29919700
 H                 -1.02944000   -1.90519100   -0.27113600
 H                 -2.11459100   -0.50907200   -0.22300100
 H                 -1.16151400   -0.93700400    1.20632500
 H                 -0.01532800    0.03654400   -1.46581200


--link1--
%nproc=8
%chk=F256.chk
#p b3lyp/6-311+G(d,p) opt freq

test

0 1
 C                  1.86153400    0.01924600   -0.27806600
 C                  0.72311700   -0.29787900    0.33543900
 C                 -0.53865600    0.51826400    0.30832200
 C                 -1.73055700   -0.24403500   -0.29331600
 H                  2.73621300   -0.61911300   -0.22197300
 H                  1.95921300    0.93261700   -0.85791600
 H                 -2.63877400    0.36426800   -0.26653400
 H                 -1.93094100   -1.16601500    0.26106900
 H                 -1.53495300   -0.51757100   -1.33360600
 H                 -0.36443600    1.44246000   -0.25225700
 H                 -0.79246800    0.81678100    1.33377300
 H                  0.67351500   -1.22699300    0.90316800


--link1--
%nproc=8
%chk=F266.chk
#p b3lyp/6-311+G(d,p) opt freq

test

0 1
 C                  1.98997800   -0.05216400    0.23910000
 C                  0.89879400   -0.62998600   -0.25998800
 C                 -0.47315200   -0.01889800   -0.41926300
 C                 -0.56428200    1.44665400    0.01657200
 C                 -1.52317000   -0.88180300    0.30844000
 H                  2.92603400   -0.59460800    0.31175300
 H                  1.99765100    0.97361200    0.59064300
 H                 -2.53288000   -0.50441200    0.12274200
 H                 -1.34925700   -0.87149700    1.38881500
 H                 -1.48650700   -1.92240800   -0.02649100
 H                 -1.56961700    1.83532800   -0.16660000
 H                  0.14213500    2.07591600   -0.53108400
 H                 -0.35638000    1.55579000    1.08569300
 H                 -0.71091000   -0.06507700   -1.49243200
 H                  0.97072600   -1.66546500   -0.59220200




--link1--
%nproc=8
%chk=F267.chk
#p b3lyp/6-311+G(d,p) opt freq

test

0 1
 C                 -2.48626400   -0.21589300   -0.30057300
 C                 -1.41853800    0.34047600    0.26834700
 C                 -0.07542400   -0.31385400    0.42639800
 C                  1.05915800    0.45060900   -0.27985000
 C                  2.43139000   -0.19763300   -0.07716000
 H                 -3.42752300    0.31533400   -0.38777100
 H                 -2.45650800   -1.22664400   -0.69741600
 H                  3.21655300    0.36371400   -0.59095800
 H                  2.44680300   -1.22088800   -0.46544400
 H                  2.69529700   -0.24303400    0.98425200
 H                  1.08233700    1.48270700    0.08964800
 H                  0.83248100    0.51413500   -1.34978100
 H                 -0.11944400   -1.34132300    0.04792600
 H                  0.16616800   -0.38422800    1.49606600
 H                 -1.49809200    1.35800000    0.65050700


--link1--
%nproc=8
%chk=F270.chk
#p b3lyp/6-311+G(d,p) opt freq

test

0 1
 C                  2.34338200   -0.77795300    0.03014300
 C                  1.14007500    0.14640900   -0.01887900
 C                 -0.22615500   -0.52534800   -0.04973500
 C                 -1.41319000    0.43110600    0.05701800
 C                 -2.76070300   -0.29335900   -0.00500700
 O                  1.26713600    1.35172200   -0.02518200
 H                  3.25642200   -0.21108500   -0.14836300
 H                  2.25310200   -1.58632800   -0.70099800
 H                  2.40159800   -1.24493000    1.01939900
 H                 -3.59135500    0.41273200    0.07575600
 H                 -2.86380500   -1.01889200    0.80848200
 H                 -2.87950400   -0.83636900   -0.94830300
 H                 -1.34660200    1.17226700   -0.74410500
 H                 -1.33436300    0.99613000    0.99077600
 H                 -0.25331800   -1.27772200    0.75011400
 H                 -0.27971100   -1.10471200   -0.98254000




--link1--
%nproc=8
%chk=F275.chk
#p b3lyp/6-311+G(d,p) opt freq

test

0 1
 C                 -2.10174800   -0.03246100   -0.11600700
 C                 -0.76508300   -0.65963400    0.29368900
 C                  0.48177200   -0.00280800   -0.32846800
 C                  1.73900600   -0.82500800   -0.01258400
 C                  0.66410700    1.45385500    0.12143000
 H                 -2.94103300   -0.59152100    0.30706200
 H                 -2.22021200   -0.03292400   -1.20459100
 H                 -2.19359800    1.00122100    0.22726200
 H                  1.55881500    1.89305200   -0.32967700
 H                  0.77959300    1.51199700    1.20983700
 H                 -0.18550300    2.08174900   -0.15784100
 H                  2.62649800   -0.39131200   -0.48291600
 H                  1.64190800   -1.85553000   -0.36713300
 H                  1.92051200   -0.86045000    1.06750700
 H                  0.34558800   -0.00391600   -1.41915900
 H                 -0.77274200   -1.71982200    0.01399500
 H                 -0.66814900   -0.63620300    1.38730100





--link1--
%nproc=8
%chk=F277.chk
#p b3lyp/6-311+G(d,p) opt freq

test

0 1
 C                 -1.63815800    0.03951800    0.54634600
 C                 -0.26271700   -0.60556900    0.64339700
 C                  0.81745900   -0.00895600   -0.27892800
 C                  2.09030500   -0.86486600   -0.22226100
 O                 -2.12584700   -0.12756900   -0.78994500
 H                 -2.99353300    0.28082500   -0.85833000
 C                  1.13463100    1.45446800    0.05952200
 H                  1.91178800    1.84607400   -0.60340300
 H                  1.49933900    1.54956400    1.08904300
 H                  0.26057100    2.10192900   -0.04836800
 H                  2.85658300   -0.47986600   -0.90161600
 H                  1.88540600   -1.90215400   -0.50347200
 H                  2.51601200   -0.87108300    0.78781900
 H                  0.42831000   -0.04479900   -1.30220000
 H                 -0.37504000   -1.67219400    0.41848100
 H                  0.07095600   -0.53753500    1.68762200
 H                 -1.58658000    1.10564800    0.80289100
 H                 -2.31616000   -0.44342000    1.26264300




--link1--
%nproc=8
%chk=F287.chk
#p b3lyp/6-311+G(d,p) opt freq

test

0 1
 C                 -0.24169000    0.00000000   -0.00000100
 C                  0.42999200    1.21869000   -0.00000100
 C                  1.82144100    1.21018900    0.00000000
 C                  2.51578900    0.00000000    0.00000100
 C                  1.82144000   -1.21018900    0.00000000
 C                  0.42999200   -1.21869000   -0.00000100
 N                 -1.72270800    0.00000000   -0.00000100
 O                 -2.29111800   -1.08434800    0.00000100
 O                 -2.29111800    1.08434800    0.00000100
 H                  2.36271300   -2.14872900    0.00000100
 H                  3.59973300    0.00000000    0.00000200
 H                  2.36271300    2.14872900    0.00000100
 H                 -0.13504900   -2.14045800   -0.00000100
 H                 -0.13504900    2.14045800   -0.00000100




--link1--
%nproc=8
%chk=F300.chk
#p b3lyp/6-311+G(d,p) opt freq

test

0 1
 C                 -2.04226800   -0.00000100   -0.00041400
 C                 -0.61036100   -0.00000100   -0.00030400
 C                  0.09027400   -1.21515200   -0.00020100
 C                  1.48078700   -1.20876000    0.00008600
 C                  2.17674300    0.00000100    0.00023100
 C                  1.48078600    1.20876000    0.00008600
 C                  0.09027300    1.21515100   -0.00020100
 N                 -3.19781200    0.00000000    0.00058400
 H                  2.02149300    2.14789100    0.00019200
 H                  3.26069400    0.00000100    0.00045300
 H                  2.02149500   -2.14789000    0.00019200
 H                 -0.45820100    2.14899700   -0.00031600
 H                 -0.45819900   -2.14899800   -0.00031600




--link1--
%nproc=8
%chk=F301.chk
#p b3lyp/6-311+G(d,p) opt freq

test

0 1
 C                  1.99245700    0.46344400   -0.00001500
 C                  0.53391000    0.20653200   -0.00000700
 C                  0.03814900   -1.10460800   -0.00000600
 C                 -1.33269500   -1.32600900    0.00000000
 C                 -2.21670400   -0.24252800    0.00000500
 C                 -1.72957200    1.06372500    0.00000400
 C                 -0.35493500    1.28692600   -0.00000200
 O                  2.84894900   -0.39241100    0.00001400
 H                  2.27090700    1.53898500    0.00001900
 H                 -2.41776800    1.90109500    0.00000700
 H                 -3.28657500   -0.41927400    0.00000900
 H                 -1.71925100   -2.33880600    0.00000100
 H                  0.03468500    2.30039900   -0.00000300
 H                  0.74273600   -1.92800000   -0.00001000




--link1--
%nproc=8
%chk=F306.chk
#p b3lyp/6-311+G(d,p) opt freq

test

0 1
 C                 -1.35865300   -1.24473000   -0.56940400
 C                 -0.64646900   -0.00000500    0.00051300
 C                  0.85762600    0.00000000   -0.44797700
 C                  1.64018500    1.25260400   -0.01634800
 C                  1.64018600   -1.25260800   -0.01636000
 C                 -1.35844100    1.24518800   -0.56864600
 C                 -0.79644800   -0.00045500    1.53427900
 H                 -0.98471300    2.17218900   -0.12822000
 H                 -2.43216300    1.19701100   -0.36334600
 H                 -1.23102700    1.31174700   -1.65432100
 H                  2.65493700    1.21738800   -0.42355500
 H                  1.73208100    1.31502400    1.07232500
 H                  1.18084100    2.17769700   -0.36960000
 H                  2.65490900   -1.21743000   -0.42364100
 H                  1.18079500   -2.17770400   -0.36954500
 H                  1.73215700   -1.31498800    1.07230700
 H                  0.83220500    0.00000800   -1.54670900
 H                 -0.34162300    0.88383800    1.98835400
 H                 -0.34198500   -0.88521500    1.98780300
 H                 -1.85562100   -0.00032300    1.81054400
 H                 -2.43238700   -1.19643500   -0.36418900
 H                 -0.98517500   -2.17205700   -0.12945100
 H                 -1.23113800   -1.31071700   -1.65510000


--link1--
%nproc=8
%chk=F309.chk
#p b3lyp/6-311+G(d,p) opt freq

test

0 1
 C                  1.69917400   -0.20435200   -0.00022500
 C                  2.55927200    1.04621100    0.00013300
 O                  2.21365400   -1.30714100    0.00006100
 C                  0.20445700   -0.05760100   -0.00011000
 C                 -0.58017300   -1.21986600   -0.00003400
 C                 -1.96691300   -1.13486800    0.00005600
 C                 -2.59081900    0.11453100    0.00007100
 C                 -1.82149200    1.27654300   -0.00000200
 C                 -0.43077200    1.19147800   -0.00008600
 H                  2.35656700    1.66068000   -0.88195500
 H                  3.60675600    0.74955700    0.00043400
 H                  2.35602800    1.66061100    0.88214500
 H                 -2.30328900    2.24770800    0.00000800
 H                 -3.67317200    0.18112100    0.00014000
 H                 -2.56468300   -2.03941200    0.00011400
 H                  0.15351100    2.10361100   -0.00014100
 H                 -0.07734700   -2.17920400   -0.00005300



--link1--
%nproc=8
%chk=F332.chk
#p b3lyp/6-311+G(d,p) opt freq

test

0 2
 C                 -1.22805300    0.19606100    0.00000000
 H                 -1.29639400    1.27856600    0.00000000
 H                 -2.15521700   -0.36263300    0.00000700
 C                 -0.00000500   -0.44234800   -0.00000200
 C                  1.22805500    0.19605500    0.00000000
 H                 -0.00000300   -1.53048000   -0.00000300
 H                  1.29640400    1.27856200   -0.00000300
 H                  2.15523000   -0.36262100    0.00001000


--link1--
%nproc=8
%chk=F333.chk
#p b3lyp/6-311+G(d,p) opt freq

test

0 2
 C                 -1.30484800   -0.29380900   -0.02794700
 C                 -0.08112000    0.55198100    0.04825200
 C                  1.22868700   -0.24240900   -0.03599200
 H                 -1.28664200   -1.32704500    0.30046900
 H                 -2.26502600    0.13569900   -0.28768500
 H                 -0.08557600    1.12624600    0.99166700
 H                 -0.10806600    1.31393200   -0.74124300
 H                  2.09728100    0.41549000    0.05321100
 H                  1.30370200   -0.77447100   -0.98835600
 H                  1.28800900   -0.98442300    0.76605800


--link1--
%nproc=8
%chk=F336.chk
#p b3lyp/6-311+G(d,p) opt freq

test

0 1
 C                  1.33444500   -1.46152500    0.00000000
 H                  1.86080100   -2.38431900    0.00000000
 C                  0.73867900   -0.41641500    0.00000000
 C                  0.00000000    0.84386900    0.00000000
 H                  0.29881800    1.43016000    0.87619300
 H                  0.29881800    1.43016000   -0.87619300
 C                 -1.52772800    0.65201000    0.00000000
 H                 -2.03130100    1.62213700    0.00000000
 H                 -1.84975800    0.09711500   -0.88384100
 H                 -1.84975800    0.09711500    0.88384100




--link1--
%nproc=8
%chk=F340.chk
#p b3lyp/6-311+G(d,p) opt freq

test

0 2
 C                  0.26576000   -0.63505800    1.27170900
 H                  1.13277100   -1.30160200    1.29156800
 H                 -0.63713800   -1.25176100    1.31976900
 H                  0.29767200   -0.01519900    2.17229600
 C                  0.26576000    0.23063900    0.00000000
 H                  1.21460100    0.79904900    0.00000000
 C                  0.26576000   -0.63505800   -1.27170900
 H                  0.29767200   -0.01519900   -2.17229600
 H                  1.13277100   -1.30160200   -1.29156800
 H                 -0.63713800   -1.25176100   -1.31976900
 C                 -0.85548300    1.21672200    0.00000000
 H                 -1.22599400    1.63730000    0.92808800
 H                 -1.22599400    1.63730000   -0.92808800



--link1--
%nproc=8
%chk=F357.chk
#p b3lyp/6-311+G(d,p) opt freq

test

0 1
 C                 -0.68634600   -1.77303500    0.00000000
 C                 -1.00675200   -0.42093200    0.00000000
 C                  0.00000000    0.55912600    0.00000000
 C                  1.33584100    0.12938200    0.00000000
 C                  1.65932600   -1.22530100    0.00000000
 C                  0.64858400   -2.18331100    0.00000000
 H                 -1.47972800   -2.51235400    0.00000000
 H                 -2.04947000   -0.12535200    0.00000000
 H                  2.12854200    0.87066400    0.00000000
 H                  2.69962800   -1.53111700    0.00000000
 H                  0.89488500   -3.23905000    0.00000000
 C                 -0.28117000    2.00405000    0.00000000
 C                 -1.47557400    2.60399300    0.00000000
 H                  0.60538700    2.63477800    0.00000000
 H                 -1.55271200    3.68450800    0.00000000
 H                 -2.40999000    2.05409600    0.00000000





--link1--
%nproc=8
%chk=F378.chk
#p b3lyp/6-311+G(d,p) opt freq

test

0 1
 C                 -1.89709100    0.56328600   -0.00000100
 C                 -0.69763000   -0.34495500   -0.00001800
 H                 -2.80761000   -0.03359700   -0.00021300
 H                 -1.87070800    1.21961300    0.87428500
 H                 -1.87050600    1.21999000   -0.87399000
 C                  0.69763000    0.34495500    0.00000500
 C                  1.89709000   -0.56328600    0.00001000
 H                  2.80761000    0.03359600    0.00022900
 H                  1.87049300   -1.21998400    0.87400400
 H                  1.87071800   -1.21962000   -0.87427100
 O                 -0.75925800   -1.55364400    0.00000200
 O                  0.75925800    1.55364400   -0.00000400




--link1--
%nproc=8
%chk=F379.chk
#p b3lyp/6-311+G(d,p) opt freq

test

0 1
 O                  0.01422300    0.73288600    0.00000000
 O                 -0.01422300   -0.73288600    0.00000000
 C                 -1.34924900    1.14033100    0.00000000
 C                 -1.34924900    2.66028400    0.00000000
 C                  1.34924900   -1.14033100    0.00000000
 C                  1.34924900   -2.66028400    0.00000000
 H                  1.84818200   -0.74018700    0.89017900
 H                  1.84818200   -0.74018700   -0.89017900
 H                 -1.84818200    0.74018700    0.89017900
 H                 -1.84818200    0.74018700   -0.89017900
 H                 -0.84650800    3.05202300    0.88690700
 H                 -2.37986800    3.02433700    0.00000000
 H                 -0.84650800    3.05202300   -0.88690700
 H                  2.37986800   -3.02433700    0.00000000
 H                  0.84650800   -3.05202300   -0.88690700
 H                  0.84650800   -3.05202300    0.88690700


--link1--
%nproc=8
%chk=F399.chk
#p b3lyp/6-311+G(d,p) opt freq

test

0 2
 N                 -0.00000900   -0.00000700    0.00000800
 O                 -1.20602000   -0.26170500   -0.00000200
 O                  0.82966600   -0.91355900   -0.00000200
 O                  0.37636200    1.17527100   -0.00000200


--link1--
%nproc=8
%chk=F403.chk
#p b3lyp/6-311+G(d,p) opt freq

test

0 1
 N                 -0.17998200    0.48615300   -0.00021300
 O                 -1.10299600   -0.22531200    0.00016600
 O                  1.04544900   -0.25520900   -0.00017100
 H                  1.72024900    0.44110400    0.00152800


--link1--
%nproc=8
%chk=F404.chk
#p b3lyp/6-311+G(d,p) opt freq

test

0 1
 N                  0.15343900    0.03029900    0.00012200
 O                  0.23475200    1.23745400   -0.00016100
 O                  1.00842400   -0.80282400    0.00012500
 O                 -1.16181100   -0.49795800   -0.00040000
 H                 -1.72499300    0.29453500    0.00263900


--link1--
%nproc=8
%chk=F424.chk
#p b3lyp/6-311+G(d,p) opt freq

test

0 1
 C                  0.02232700   -0.00005900   -0.00000400
 C                 -1.48017100   -0.00002500   -0.00000400
 F                  0.52848100    1.25412800   -0.07559400
 F                  0.52851800   -0.69252400   -1.04811600
 F                  0.52850800   -0.56156400    1.12371600
 H                 -1.84098600   -1.02659400    0.06195400
 H                 -1.84076200    0.45971900   -0.92003500
 H                 -1.84075800    0.56701900    0.85806900




--link1--
%nproc=8
%chk=F444.chk
#p b3lyp/6-311+G(d,p) opt freq

test

0 2
 C                  0.00000000    0.00000000    0.28070900
 Cl                 0.00000000    1.70093800   -0.03302500
 Cl                -1.47305600   -0.85046900   -0.03302500
 Cl                 1.47305600   -0.85046900   -0.03302500




--link1--
%nproc=8
%chk=F523.chk
#p b3lyp/6-311+G(d,p) opt freq

test

0 1
 S                 -0.46431200    0.93752700   -0.49257800
 S                  0.46431200   -0.93752700   -0.49257800