%nproc=8
%chk=cum.chk
#p b3lyp/6-311+G(d   p) opt freq

test

0 1
 C     -0.7569669349   0.2676508308   -0.4851720287
 C     0.6746744672   -0.2008169806   -0.1667698384
 H     -0.7899770674   1.3453993747   -0.6639303965
 H     -1.4406685733   0.0449867593   0.339464107
 H     -1.1375726803   -0.2381394212   -1.377718059
 C     0.7262572057   -1.726558737   0.0328963197
 C     1.2690808405   0.5488515615   1.0174230244
 H     1.2980945235   0.0369925406   -1.0362879722
 H     1.7476036459   -2.0664206974   0.2224745378
 H     0.3541326279   -2.2436740977   -0.8567316295
 C     0.7042392593   0.4615989223   2.2966724732
 H     0.1082542051   -2.0376001927   0.8804713917
 C     1.2550609153   1.1510875954   3.3742571988
 C     2.3871153277   1.9459439133   3.1954724737
 C     2.9603111756   2.0429861921   1.9300620443
 C     2.4039009455   1.3499847638   0.8548994381
 H     -0.1765247055   -0.1511806574   2.4575743679
 H     0.7999896203   1.0679226899   4.3553215224
 H     2.8164227839   2.4829525294   4.0338096545
 H     3.8408220856   2.6576159823   1.777152254
 H     2.8588813325   1.4327791286   -0.1274008831  
  
