%nproc=8
%chk=F224.chk
#p b3lyp/6-311+G(d,p) opt freq

H_001_CClN

0 1
 C                  0.00000000    0.00000000   -0.66012300
 N                  0.00000000    0.00000000   -1.81563700
 Cl                 0.00000000    0.00000000    0.98060000  
  
