%nproc=8
%chk=F243.chk
#p b3lyp/6-311+G(d,p) opt freq

test

0 1
 C                 -0.57562700   -0.07769800    0.00000000
 C                 -0.57562700   -0.90837200    1.27366500
 C                 -0.57562700   -0.90837200   -1.27366500
 Cl                 0.89851500    1.02891200    0.00000000
 H                 -0.56968200   -0.27507700   -2.16204200
 H                 -1.47615800   -1.53096300   -1.30064500
 H                  0.29687300   -1.56507600   -1.31017000
 H                 -0.56968200   -0.27507700    2.16204200
 H                  0.29687300   -1.56507600    1.31017000
 H                 -1.47615800   -1.53096300    1.30064500
 H                 -1.41552400    0.61737200    0.00000000  
  
