%nproc=8
%chk=F251.chk
#p b3lyp/6-311+G(d,p) opt freq

test

0 1
 C                  0.41831600    0.01605200    0.40184200
 C                  1.09334900   -1.26482600   -0.09084700
 C                  1.09264700    1.27400100   -0.14197200
 S                 -1.37203700   -0.08201000   -0.09024200
 H                 -1.74302000    1.11180400    0.41677200
 H                  0.61393400    2.18262800    0.23155900
 H                  1.05397300    1.29532000   -1.23418700
 H                  2.14375800    1.29932300    0.16675400
 H                  0.61683000   -2.15583500    0.32426900
 H                  2.14435900   -1.27024600    0.21240200
 H                  1.05649800   -1.33267500   -1.18202300
 H                  0.44038300    0.03047200    1.49418100  
  
