%nproc=8
%chk=F252.chk
#p b3lyp/6-311+G(d,p) opt freq

test

 0 1
 S               0.000000    0.817880    0.000000                                          
 C              -1.822903    0.895730    0.000000
 C               0.233370   -1.003867    0.000000
 C               1.720711   -1.347011    0.000000
 H              -2.095722    1.951555    0.000000
 H              -2.238230    0.425321    0.893552
 H              -2.238230    0.425321   -0.893552
 H               1.856309   -2.432113    0.000000
 H               2.220543   -0.944992    0.884793
 H               2.220543   -0.944992   -0.884793
 H              -0.256138   -1.417651   -0.885898
 H              -0.256138   -1.417651    0.885898 

