%nproc=8
%chk=F253.chk
#p b3lyp/6-311+G(d,p) opt freq

test

0 1
  N                1.898874    0.174292   -0.086624
 H                2.656991   -0.499549   -0.097994
 H                2.059183    0.791912    0.703307
 C                0.596760   -0.493815    0.029106
 C               -0.545622    0.517934   -0.060126
 C               -1.928748   -0.132686    0.023939
 H               -2.722618    0.616096   -0.038945
 H               -2.059715   -0.675340    0.965565
 H               -2.081663   -0.845427   -0.792694
 H               -0.442712    1.075369   -0.996457
 H               -0.436248    1.251117    0.749468
 H                0.486201   -1.078786    0.957520
 H                0.514129   -1.204031   -0.800911
 
