%nproc=8
%chk=F267.chk
#p b3lyp/6-311+G(d,p) opt freq

test

0 1
 C                 -2.48626400   -0.21589300   -0.30057300
 C                 -1.41853800    0.34047600    0.26834700
 C                 -0.07542400   -0.31385400    0.42639800
 C                  1.05915800    0.45060900   -0.27985000
 C                  2.43139000   -0.19763300   -0.07716000
 H                 -3.42752300    0.31533400   -0.38777100
 H                 -2.45650800   -1.22664400   -0.69741600
 H                  3.21655300    0.36371400   -0.59095800
 H                  2.44680300   -1.22088800   -0.46544400
 H                  2.69529700   -0.24303400    0.98425200
 H                  1.08233700    1.48270700    0.08964800
 H                  0.83248100    0.51413500   -1.34978100
 H                 -0.11944400   -1.34132300    0.04792600
 H                  0.16616800   -0.38422800    1.49606600
 H                 -1.49809200    1.35800000    0.65050700  
  
