%nproc=8
%chk=F403.chk
#p b3lyp/6-311+G(d,p) opt freq

test

0 1
 N                0.180039    0.486403   -0.000112
 O                1.102814   -0.225463    0.000088
 O               -1.045318   -0.255243   -0.000090
 H               -1.720241    0.440831    0.000808
 
