%nproc=8
%chk=F404.chk
#p b3lyp/6-311+G(d,p) opt freq

test

0 1
 N                0.153365    0.030432   -0.000004
 O                0.233649    1.237644   -0.000034
 O                1.009058   -0.802063    0.000048
 O               -1.161229   -0.498832   -0.000106
 H               -1.725373    0.292985    0.000756
 
