%nproc=8
%chk=F444.chk
#p b3lyp/6-311+G(d,p) opt freq

test

0 2
 C                  0.00000000    0.00000000    0.28070900
 Cl                 0.00000000    1.70093800   -0.03302500
 Cl                -1.47305600   -0.85046900   -0.03302500
 Cl                 1.47305600   -0.85046900   -0.03302500  
  
