%nproc=8
%chk=F771.chk
#p b3lyp/6-311+G(d,p) opt freq

test

0 1
  S           -1.054160    0.067734   -0.055161
  H           -1.308609   -0.873002    0.882554
  S            1.054160   -0.067742   -0.055150
  H            1.308608    0.873138    0.882420
 
