%nproc=4
%mem=1000mb
#P B3LYP/6-311++G(3df,2p) scf=tight nosymm

Ar-Ar at equlibium r=3.7565 Anstron with dE=-0.2846 kcal/mol

0 1
Ar
Ar 1 3.7565


