%nproc=4
%mem=1000mb
#P B3LYP/6-311++G(3df,2p) scf=tight nosymm

Ar-Ar at r=4.6 Anstron

0 1
Ar
Ar 1 4.6


