$molecule
0  2
 C     0.000000     0.000000     0.000000
 C     0.000000     0.000000     1.490139
 H     1.013767     0.000000     1.891141
 H    -0.848549     0.374135    -0.552865
 H    -0.501058    -0.887685     1.895852
 H    -0.525008     0.867485     1.891046
 H     0.772183    -0.512697    -0.553572 
$end
   
$rem
mem_static = 200
mem_total  = 7500
exchange = b3lyp
basis = 6-311+g(3df,2p)
scf_convergence = 7
symmetry = false
xc_grid = 000075000302
$end
