$molecule
0 1
C       -2.055638   -0.612272    0.000007
C       -1.231096    0.640448    0.000049
C        0.105634    0.734273    0.000026
C        1.057555   -0.374407   -0.000044
C        2.383583   -0.198936   -0.000036
H       -2.705085   -0.641597    0.877132
H       -2.705129   -0.641508   -0.877089
H       -1.451332   -1.516079   -0.000055
H       -1.793665    1.567586    0.000103
H        0.545756    1.725643    0.000064
H        0.665262   -1.383242   -0.000105
H        3.064689   -1.037719   -0.000088
H        2.819275    0.792285    0.000023
$end
   
$rem
mem_static = 200
mem_total  = 7500
exchange = b3lyp
basis = 6-311+g(3df,2p)
scf_convergence = 7
symmetry = false
xc_grid = 000075000302
$end
