$molecule
0 2
O   0.0000000   0.00000000   0.00000000
H   0.96889819  0.00000000   0.0000000
$end
   
$rem
mem_static = 200
mem_total  = 7500
exchange = b3lyp
basis = 6-311+g(3df,2p)
scf_convergence = 7
symmetry = false
xc_grid = 000075000302
$end
