$molecule
0 1
N        0.000000    0.000000    0.112890
H        0.000000    0.938024   -0.263409
H        0.812353   -0.469012   -0.263409
H       -0.812353   -0.469012   -0.263409
$end
   
$rem
mem_static = 200
mem_total  = 7500
exchange = b3lyp
basis = 6-311+g(3df,2p)
scf_convergence = 7
symmetry = false
xc_grid = 000075000302
$end
