lattice_vector 1.5882 -2.7508 0.0000
lattice_vector 1.5882 2.7508 0.0000
lattice_vector 0.0000 0.0000 5.1869

atom   1.5882 0.9169 0.0000 B
atom   1.5882 -0.9169 2.5935 B
atom   1.5882 0.9169 1.9451 P
atom   1.5882 -0.9169 4.5385 P
