#p b3lyp 6-311+g(3df,2p) scf=tight nosymm

E10

0    1
    C     -0.94243300     -0.39094821      0.00000000
    C      0.32775798      0.43504354      0.00000000
    O      1.44127783     -0.46307238      0.00000000
    H      2.25487883      0.05221254      0.00000000
    H     -1.82041256      0.25945713      0.00000000
    H     -0.98520094     -1.02878956     -0.88479819
    H     -0.98520094     -1.02878956      0.88479819
    H      0.35466640      1.08244325      0.88660160
    H      0.35466640      1.08244325     -0.88660160
 
 
 
