#p b3lyp 6-311+g(3df,2p) scf=tight nosymm

E11

0    1
    C     -1.38077922     -0.17649711      0.00000000
    C     -0.23313481      0.49246758      0.00000000
    C      1.13140184     -0.12658997      0.00000000
    H     -1.40741494     -1.26161084      0.00000000
    H     -2.33636076      0.33407471      0.00000000
    H     -0.26151006      1.58020249      0.00000000
    H      1.07743716     -1.21697816      0.00000000
    H      1.70518039      0.18746566      0.87786510
    H      1.70518039      0.18746566     -0.87786510
 
 
 
