#p b3lyp 6-311+g(3df,2p) scf=tight nosymm

E20

0    1
    C      0.00000000      0.00000000      0.06652666
    F      0.00000000      0.00000000     -1.32599103
    H      0.51635563      0.89435418      0.41982146
    H      0.51635563     -0.89435418      0.41982146
    H     -1.03271125      0.00000000      0.41982146
 
 
 
