#p b3lyp 6-311+g(3df,2p) scf=tight nosymm

E21

0    1
    C     -0.56760089      0.09225707      0.00000000
    N      0.89401101      0.17501316      0.00000000
    H      1.28469243     -0.28172731      0.81563689
    H      1.28469243     -0.28172731     -0.81563689
    H     -0.95722225      0.61157887      0.87795269
    H     -0.98135048     -0.92697335      0.00000000
    H     -0.95722225      0.61157887     -0.87795269
 
 
 
