#p b3lyp 6-311+g(3df,2p) scf=tight nosymm

E25

0    1
    C     -0.83272746     -0.23005227     -0.00228001
    N      0.35200427      0.61703762     -0.08274828
    H      0.39045232      1.19975165      0.74965853
    O      1.51457955     -0.23787549      0.06201231
    H      2.02031223     -0.04518880     -0.73586932
    H     -1.70520871      0.42686876      0.04164410
    H     -0.83437576     -0.89229768      0.87207049
    H     -0.90503645     -0.83824378     -0.90448782
 
 
 
