#p b3lyp 6-311+g(3df,2p) scf=tight nosymm

E27

0    1
    C      0.66349793     -0.00785642      0.00000000
    N     -0.84039189     -0.01709144      0.00000000
    O     -1.39776878     -0.00425297     -1.08638593
    O     -1.39776878     -0.00425297      1.08638593
    H      1.00250255     -0.50224395      0.90467155
    H      0.96742641      1.03794170      0.00000000
    H      1.00250255     -0.50224395     -0.90467155
 
 
 
