#p b3lyp 6-311+g(3df,2p) scf=tight nosymm

E29

0    1
    C      0.00000000     -1.17550796      0.04521838
    O      0.00000000      0.00000000      0.82892237
    C      0.00000000      1.17550796      0.04521838
    H      0.00000000     -2.02278131      0.73019691
    H     -0.89149713     -1.23518715     -0.59493824
    H      0.89149713     -1.23518715     -0.59493824
    H      0.00000000      2.02278131      0.73019691
    H     -0.89149713      1.23518715     -0.59493824
    H      0.89149713      1.23518715     -0.59493824
 
 
 
