#p b3lyp 6-311+g(3df,2p) scf=tight nosymm

E33

1    1
    C      0.00000000      0.00000000     -0.97108932
    P      0.00000000      0.00000000      0.84409500
    H     -0.65167696      1.12873760      1.37020142
    H     -0.65167696     -1.12873760      1.37020142
    H      1.30335392      0.00000000      1.37020142
    H     -1.03038558      0.00000000     -1.32786998
    H      0.51519279      0.89234008     -1.32786998
    H      0.51519279     -0.89234008     -1.32786998
 
 
 
