#p b3lyp 6-311+g(3df,2p) scf=tight nosymm

E35

0    1
    C     -1.00303566     -0.68897005      0.00000000
    S     -0.52402866      1.07825245      0.00000000
    C      1.25183634      0.91046088      0.00000000
    O      1.86065017     -0.12619902      0.00000000
    H     -2.09086636     -0.71431760      0.00000000
    H     -0.61640422     -1.18017991     -0.88945373
    H     -0.61640422     -1.18017991      0.88945373
    H      1.73825260      1.90113316      0.00000000
 
 
 
