#p b3lyp 6-311+g(3df,2p) scf=tight nosymm

E36

1    1
    C     -0.73100233      0.21476548      0.00000000
    S      1.11935442      0.29158793      0.00000000
    H      1.39077939     -0.59309524      0.99742518
    H      1.39077939     -0.59309524     -0.99742518
    H     -1.05146523      0.74878712      0.89220669
    H     -1.06698039     -0.81773717      0.00000000
    H     -1.05146523      0.74878712     -0.89220669
 
 
 
