#p b3lyp 6-311+g(3df,2p) scf=tight nosymm

E38

0    1
    C      0.00000000     -1.43218961     -0.33518261
    S      0.00000000      0.00000000      0.78375124
    C      0.00000000      1.43218961     -0.33518261
    O     -1.28468794      0.00000000      1.51653376
    O      1.28468794      0.00000000      1.51653376
    H     -0.90208479     -1.41102905     -0.94348504
    H      0.90208479     -1.41102905     -0.94348504
    H      0.00000000     -2.30655171      0.31374332
    H     -0.90208479      1.41102905     -0.94348504
    H      0.00000000      2.30655171      0.31374332
    H      0.90208479      1.41102905     -0.94348504
 
 
 
