#p b3lyp 6-311+g(3df,2p) scf=tight nosymm

E39

0    1
    C      0.22860105     -0.01944643     -1.37470959
    S     -0.79846320     -0.69331978      0.00000000
    C      0.22860105     -0.01944643      1.37470959
    H     -0.29285196     -0.26744160     -2.29752270
    H      1.21588943     -0.48294426     -1.36627363
    H      0.29563937      1.06273895     -1.26489001
    H      0.29563937      1.06273895      1.26489001
    H     -0.29285196     -0.26744160      2.29752270
    H      1.21588943     -0.48294426      1.36627363
    O     -2.09609259      0.10750644      0.00000000
 
 
 
