#p b3lyp 6-311+g(3df,2p) scf=tight nosymm

E41

0    1
    C     -0.59799629      0.39422636     -0.19084658
    C      0.68127286     -0.41347196      0.02060303
    N      1.81490644      0.31960532      0.19341281
    N     -1.73711344     -0.35418582      0.31825289
    O      0.68394256     -1.63099032     -0.01319412
    H     -2.59389781     -0.08713482     -0.14932953
    H     -1.57573958     -1.34407838      0.15879802
    H      1.79515137      1.31744470      0.31235796
    H      2.69022462     -0.16647168      0.30503919
    H     -0.63997485      0.60405858     -1.27248646
    H     -0.52077585      1.36099801      0.31739279
 
 
 
