#p b3lyp 6-311+g(3df,2p) scf=tight nosymm

E43

0    1
    C      0.00000000      0.00000000     -0.95112444
    C      0.00000000      0.00000000      0.50452092
    C      0.00000000      0.00000000      1.70547887
    H      0.51017027      0.88364083     -1.34219782
    H      0.51017027     -0.88364083     -1.34219782
    H     -1.02034054      0.00000000     -1.34219782
    H      0.00000000      0.00000000      2.76771813
 
 
 
