#p b3lyp 6-311+g(3df,2p) scf=tight nosymm

E44

0    1
    C      0.72983940     -1.26411892     -0.06542152
    C      0.00000000      0.00000000      0.40178288
    C      0.72983940      1.26411892     -0.06542152
    C     -1.45967879      0.00000000     -0.06542152
    H      1.76158633     -1.28463628      0.29526920
    H      0.23173449     -2.16789665      0.29526920
    H      0.75902932     -1.31467735     -1.15863283
    H      0.00000000      0.00000000      1.49876497
    H      0.23173449      2.16789665      0.29526920
    H      0.75902932      1.31467735     -1.15863283
    H      1.76158633      1.28463628      0.29526920
    H     -1.99332082      0.88326037      0.29526920
    H     -1.99332082     -0.88326037      0.29526920
    H     -1.51805865      0.00000000     -1.15863283
 
 
 
