#p b3lyp 6-311+g(3df,2p) scf=tight nosymm

E45

0    1
    C     -0.88787044     -0.88787044     -0.88787044
    C      0.00000000      0.00000000      0.00000000
    C      0.88787044      0.88787044     -0.88787044
    C     -0.88787044      0.88787044      0.88787044
    C      0.88787044     -0.88787044      0.88787044
    H     -1.53176772     -0.28230737     -1.53176772
    H     -0.28230737     -1.53176772     -1.53176772
    H     -1.53176772     -1.53176772     -0.28230737
    H      0.28230737      1.53176772     -1.53176772
    H      1.53176772      1.53176772     -0.28230737
    H      1.53176772      0.28230737     -1.53176772
    H     -1.53176772      1.53176772      0.28230737
    H     -1.53176772      0.28230737      1.53176772
    H     -0.28230737      1.53176772      1.53176772
    H      1.53176772     -1.53176772      0.28230737
    H      1.53176772     -0.28230737      1.53176772
    H      0.28230737     -1.53176772      1.53176772
 
 
 
