#p b3lyp 6-311+g(3df,2p) scf=tight nosymm

E5

0    1
    C      0.00000000      0.00000000      0.85278024
    C      0.00000000      0.00000000     -0.66021523
   Cl     -0.85000705     -1.47225539     -1.28255706
   Cl     -0.85000705      1.47225539     -1.28255706
   Cl      1.70001409      0.00000000     -1.28255706
    H      0.51313606     -0.88877773      1.21836873
    H      0.51313606      0.88877773      1.21836873
    H     -1.02627212      0.00000000      1.21836873
 
 
 
