#p b3lyp 6-311+g(3df,2p) scf=tight nosymm

E6

0    1
    C      0.00000000     -1.28520647     -0.26484004
    C      0.00000000      0.00000000      0.53088486
    F      1.10274159      0.00000000      1.37023786
    F     -1.10274159      0.00000000      1.37023786
    C      0.00000000      1.28520647     -0.26484004
    H      0.00000000     -2.13344197      0.41963102
    H     -0.88808833     -1.33557030     -0.89523564
    H      0.88808833     -1.33557030     -0.89523564
    H      0.88808833      1.33557030     -0.89523564
    H     -0.88808833      1.33557030     -0.89523564
    H      0.00000000      2.13344197      0.41963102
 
 
 
