#p b3lyp 6-311+g(3df,2p) scf=tight nosymm

E8

0    1
    C     -0.64259464     -0.48380195      0.00000000
    C      0.45793114      0.55510294      0.00000000
   Cl      2.11462100     -0.22176856      0.00000000
    H     -1.61451347      0.01910967      0.00000000
    H     -0.58656341     -1.11884048     -0.88492707
    H     -0.58656341     -1.11884048      0.88492707
    H      0.42884139      1.18451943      0.88645916
    H      0.42884139      1.18451943     -0.88645916
 
 
 
