#p b3lyp 6-311+g(3df,2p) scf=tight nosymm

P1

0    2
    C      0.00000000      0.00000000      0.00000000
    H      0.53987980     -0.93509924      0.00000000
    H      0.53987980      0.93509924      0.00000000
    H     -1.07975959      0.00000000      0.00000000
 
 
 
