#p b3lyp 6-311+g(3df,2p) scf=tight nosymm

P10

0    2
    C     -1.04275406     -0.45812106      0.00000000
    C      0.18573306      0.36316936      0.00000000
    O      1.32617093     -0.49451406      0.00000000
    H     -0.97183186     -1.53619711      0.00000000
    H     -2.01334066      0.01851233      0.00000000
    H      0.19767710      1.02888476     -0.88158901
    H      0.19767710      1.02888476      0.88158901
    H      2.12066840      0.04938103      0.00000000
 
 
 
