#p b3lyp 6-311+g(3df,2p) scf=tight nosymm

P13

0    2
    H      0.93451147      0.00000000     -1.11036696
    C      0.00000000      0.00000000     -0.56702690
    C      0.00000000      0.00000000      0.81028125
    H     -0.93451147      0.00000000     -1.11036696
    N      0.00000000      0.00000000      1.97747957
 
 
 
