#p b3lyp 6-311+g(3df,2p) scf=tight nosymm

P19

0    2
    C     -1.59110744      0.14891060      0.00000000
    C     -0.26650084     -0.49203555      0.00000000
    C      0.89173178      0.11531627      0.75467228
    C      0.89173178      0.11531627     -0.75467228
    H     -2.11863337      0.33486001      0.92831665
    H     -2.11863337      0.33486001     -0.92831665
    H     -0.28087141     -1.58319781      0.00000000
    H      1.57611425     -0.54811489      1.26856486
    H      0.72002718      1.06109999      1.25376595
    H      1.57611425     -0.54811489     -1.26856486
    H      0.72002718      1.06109999     -1.25376595
 
 
 
