#p b3lyp 6-311+g(3df,2p) scf=tight nosymm

P2

0    2
    C      0.00000000      0.00000000      0.92003279
    C      1.21510639      0.00000000      0.17788580
    C      1.20838485      0.00000000     -1.20344040
    C      0.00000000      0.00000000     -1.90734489
    C     -1.20838485      0.00000000     -1.20344040
    C     -1.21510639      0.00000000      0.17788580
    C      0.00000000      0.00000000      2.32263853
    H      2.15586142      0.00000000      0.71671909
    H      2.14697007      0.00000000     -1.74543112
    H      0.00000000      0.00000000     -2.99035937
    H     -2.14697007      0.00000000     -1.74543112
    H     -2.15586142      0.00000000      0.71671909
    H      0.92638126      0.00000000      2.88178311
    H     -0.92638126      0.00000000      2.88178311
 
 
 
