#p b3lyp 6-311+g(3df,2p) scf=tight nosymm

P20

0    2
    H      0.55168775      0.15329812     -0.95936959
    C      0.11680895     -0.08885398      0.00000000
    F     -1.22018445     -0.21774226      0.00000000
    H      0.55168775      0.15329812      0.95936959
 
 
 
