#p b3lyp 6-311+g(3df,2p) scf=tight nosymm

P24

0    2
    C     -1.24962320     -0.03358838      0.00000000
    N      0.03607642      0.45681816      0.00000000
    H      0.17831790      1.45940440      0.00000000
    C      1.19271148     -0.28243210      0.00000000
    H     -2.06754060      0.66463721      0.00000000
    H     -1.39775691     -1.10067510      0.00000000
    O      2.30537705      0.20442384      0.00000000
    H      1.00243786     -1.36858804      0.00000000
 
 
 
