#p b3lyp 6-311+g(3df,2p) scf=tight nosymm

P29

0    2
    C     -1.32937567      0.02165620      0.00000000
    O     -0.18822739      0.75814610      0.00000000
    C      1.04376747      0.02637690      0.00000000
    H     -1.81135827     -0.18373048      0.95065278
    H     -1.81135827     -0.18373048     -0.95065278
    H      1.84328215      0.76562530      0.00000000
    H      1.12663499     -0.60217176     -0.89289601
    H      1.12663499     -0.60217176      0.89289601
 
 
 
