#p b3lyp 6-311+g(3df,2p) scf=tight nosymm

P31

0    2
    C     -1.60757108      0.54482160      0.00000000
    O     -0.44299225      1.24481537      0.00000000
    C      0.81002889      0.66562597      0.00000000
    O      1.75983911      1.39579926      0.00000000
    C      0.87959057     -0.83970380      0.00000000
    H     -1.61557475     -0.53221841      0.00000000
    H     -2.48911597      1.16195578      0.00000000
    H      0.38941726     -1.25642964      0.88281637
    H      0.38941726     -1.25642964     -0.88281637
    H      1.92696096     -1.12823651      0.00000000
 
 
 
