#p b3lyp 6-311+g(3df,2p) scf=tight nosymm

P32

0    2
    C     -0.42633998      0.07513323      0.00000000
    O      0.94011394      0.18715716      0.00000000
    H      1.36671017     -0.67877654      0.00000000
    H     -0.94024207      0.20824308     -0.94555405
    H     -0.94024207      0.20824308      0.94555405
 
 
 
