#p b3lyp 6-311+g(3df,2p) scf=tight nosymm

P37

0    2
    C     -0.53029096     -0.24024341      0.00000000
    S      1.20579347     -0.29766028      0.00000000
    H      1.43659027      1.03218535      0.00000000
    H     -1.06678764      0.69292509      0.00000000
    H     -1.04530514     -1.18720675      0.00000000
 
 
 
