#p b3lyp 6-311+g(3df,2p) scf=tight nosymm

P6

0    2
    C     -1.21296467     -0.67990272     -0.30712169
    C     -0.29369745      0.35055891      0.22683175
    F     -0.47116436      0.44301204      1.61123067
    F     -0.67747407      1.58927639     -0.25976211
    C      1.17700337      0.14322427     -0.05043832
    H     -2.26018353     -0.43752107     -0.41879276
    H     -0.86993453     -1.69356460     -0.45418088
    H      1.35660567      0.13050468     -1.12575027
    H      1.50717452     -0.80315052      0.37871355
    H      1.74463507      0.95756262      0.39927006
 
 
 
