#p b3lyp/6-311+G(3df.2p) scf=tight

H2...H2 in X

0 1
H    0.0     0.0     0.0
H    0.0     0.0     0.75
H    1.90    0.0     0.0
H    1.90    0.0     0.75

