$molecule
0  1
 O     0.000000     0.000000     1.000000
 H     0.756732     0.000000     1.589100
 H    -0.756732     0.000000     1.589100
 O     0.000000     2.446104    -0.612909
 H     0.000000     1.598573    -0.164164
 H     0.000000     2.218976    -1.544624
$end
   
$rem
mem_static = 200
mem_total  = 7500
exchange = b3lyp
basis = 6-311+g(3df,2p)
scf_convergence = 7
symmetry = false
xc_grid = 000075000302
$end
