#p b3lyp/6-31G scf=tight

H2O-6-Prism

0 1
O  1.941030 -0.055300 -1.575050
H  2.183030 -0.014050 -0.625690
H  1.503070 -0.918660 -1.624090
O -1.786890 -0.269700 -0.464430
H -1.429710  0.364370 -1.108600
H -1.701050  0.212550  0.369870
O  1.877990 -0.283530  1.214610
H  1.358600 -1.073150  0.997960
H  1.213370  0.393230  1.421740
O -0.269940  1.680250  1.195050
H -0.331290  2.492350  1.705770
H -0.136780  1.945090  0.262830
O -0.032290  1.697170 -1.556790
H  0.747550  1.079900 -1.657640
H  0.036860  2.349230 -2.259250
O  0.260500 -2.095540 -0.380390
H -0.552130 -1.540170 -0.409450
H -0.036310 -3.009590 -0.376820


