#p b3lyp/6-31G scf=tight

H2O-18

0 1
O  1.174260 -2.565060 -2.595620
H  1.598910 -2.330950 -3.444050
H  1.926170 -2.798610 -2.009240
O  1.783880 -1.336360  2.597430
H  2.329160 -0.707690  2.095500
H  2.012640 -2.195450  2.185750
O  2.528060  1.005850 -3.683710
H  1.817570  0.882640 -3.025200
H  3.306100  1.180210 -3.125980
O  4.668500  0.871580 -1.717450
H  4.964760  0.010720 -2.111040
H  5.447790  1.433890 -1.678580
O -1.636490 -0.277190 -0.807030
H -1.543120 -0.459240  0.144180
H -1.761740 -1.155850 -1.197670
O -1.342470 -3.096960 -1.746730
H -1.885950 -3.584580 -2.372470
H -0.464260 -2.977720 -2.173360
O  3.403150 -2.770420 -0.951330
H  3.321680 -1.917280 -0.472520
H  3.270110 -3.424000 -0.244040
O -0.502110 -3.793710  0.829820
H -0.846690 -3.803510 -0.081350
H -0.682240 -2.873620  1.126230
O  1.202330 -2.618670  5.061710
H  1.572560 -2.010740  4.397840
H  0.245360 -2.450450  5.008790
O  0.991380  0.051480 -1.558230
H  0.052870  0.136350 -1.277030
H  1.020570 -0.853670 -1.923480
O  5.174400 -1.548700 -2.812670
H  4.538480 -1.604160 -3.546480
H  4.805070 -2.159340 -2.151420
O  2.825110 -1.482860 -4.544110
H  2.813300 -1.540940 -5.504030
H  2.702480 -0.517340 -4.318220
O -0.912340 -1.235100  1.769390
H  0.020530 -1.090730  2.028960
H -1.356310 -1.430490  2.615750
O -1.346340 -4.819430  3.312040
H -0.453670 -5.098340  3.580610
H -1.239710 -4.641010  2.359690
O  1.498110 -5.005300  3.845830
H  1.451360 -4.160440  4.368020
H  1.933290 -5.648810  4.412890
O  2.218680 -3.840320  1.364800
H  1.291460 -3.905770  1.052380
H  2.231460 -4.418730  2.147840
O  3.013640 -0.277980  0.287740
H  3.707400  0.262520 -0.128830
H  2.220140 -0.073340 -0.254180
O -1.576830 -2.340420  4.264760
H -2.342040 -2.229870  4.836790
H -1.585830 -3.288850  3.961290


