#p b3lyp/6-31G scf=tight

H2O-3-Cyclic

0 1
O  1.213410  1.074900 -0.002530 
H  0.529310  0.905700  0.670960 
H  2.057630  1.029020  0.454080 
O -1.103320  0.026080  1.179760 
H -1.256770 -0.563830  1.922410 
H -1.025070 -0.542450  0.390960 
O -0.126970 -1.069840 -1.206350 
H  0.518460 -0.356030 -1.046110 
H -0.499550 -0.901180 -2.076120

