#p b3lyp/6-31G scf=tight

H2O-2-Linear

0 1
O -0.200650 -1.268870  0.821330
H -0.160480 -1.088070  1.763710
H -0.064560 -0.412850  0.387630
O  0.181580  1.155100 -0.753860
H -0.584730  1.255510 -1.327550
H  0.925610  1.004230 -1.345560


