#p b3lyp/6-31G scf=tight

H2O-19-Globular

0 1
O -0.088230  2.895360  1.877300
H -0.409210  2.074090  2.290180
H -0.095700  2.690680  0.921970
O -1.294570 -0.162240 -1.802320
H -0.849310  0.681260 -1.559010
H -2.041770  0.080200 -2.358410
O  2.227210  0.164590  2.795940
H  2.447690  1.108130  2.920440
H  1.277370  0.094950  3.012220
O  2.846680  0.656180 -3.325130
H  2.660290  1.539600 -2.969030
H  3.554440  0.333200 -2.742600
O  0.756060 -2.517240  0.182820
H  1.459780 -2.901860  0.741960
H  0.922980 -2.925390 -0.689610
O  0.203190  1.884840 -0.760200
H  0.839370  1.193380 -0.453400
H  0.778170  2.486130 -1.267900
O  4.365430 -1.571100  2.789450
H  4.939650 -0.956680  2.302710
H  3.598440 -1.006240  3.002430
O  1.906270 -0.003160  0.052670
H  1.482320 -0.886140 -0.010530
H  2.071120  0.104730  1.013980
O  4.098060  3.293230  0.338820
H  4.680140  2.540590  0.533780
H  3.515580  3.317020  1.119570
O  4.454030 -2.908360 -1.159050
H  4.163190 -3.192990 -0.277390
H  3.674760 -3.100930 -1.708680
O  3.110910 -3.432500  1.357150
H  3.203530 -4.273540  1.814550
H  3.608290 -2.767310  1.906960
O  2.442880  2.943550  2.618950
H  2.570630  3.569530  3.338010
H  1.483250  3.018380  2.349860
O  4.430210 -0.153710 -1.030460
H  4.564200 -1.125760 -1.116290
H  3.518610 -0.086030 -0.673060
O  5.466930  0.786600  1.245670
H  5.225640  0.413870  0.358190
H  6.423340  0.894280  1.238850
O -1.583910 -1.198080  0.934370
H -0.873510 -1.837550  0.738180
H -1.717570 -0.763970  0.074850
O -0.558920  0.263950  2.898750
H -0.971130 -0.263900  2.158250
H -1.114540  0.103980  3.667490
O  0.866100 -1.297420 -3.519360
H  1.533870 -0.577090 -3.514380
H  0.119140 -0.957520 -2.999380
O  1.838750 -3.377400 -2.248210
H  1.671020 -4.174360 -2.759680
H  1.495540 -2.617450 -2.801660
O  2.469880  3.162760 -1.847490
H  2.609460  3.984620 -2.327070
H  3.099900  3.194590 -1.083100

