#p b3lyp/6-31G scf=tight

H2O-4-Cyclic

0 1
O -1.434840  1.247100 -0.347350
H -0.479590  1.451580 -0.228790
H -1.902780  1.804050  0.280930
O -1.271440 -1.456710  0.034090
H -1.459120 -0.500510 -0.103330
H -1.672340 -1.912980 -0.710890
O  1.446470 -1.256130  0.253070
H  0.486280 -1.456900  0.174870
H  1.736760 -1.673490  1.068800
O  1.260090  1.466000  0.060130
H  1.452600  0.505890  0.157850
H  1.838650  1.779990 -0.640280





