#p b3lyp/6-31G scf=tight

H2O-1

0 1
O -0.051900 -0.039920 0.000000 
H -0.053040  0.921380 0.000000 
H  0.876770 -0.287890 0.000000 

