#p b3lyp/6-31G scf=tight

H2O-12-Pr444

0 1
O  1.794470  0.923410  2.768350
H  2.338250  1.359750  3.430940
H  0.879480  1.303000  2.865760
O -1.794470 -0.923410  2.768350
H -2.338250 -1.359750  3.430940
H -0.879480 -1.303000  2.865760
O  0.923410 -1.794470 -2.768350
H  1.359750 -2.338250 -3.430940
H  1.303000 -0.879480 -2.865760
O -1.752130 -0.741530 -2.896280
H -2.036450 -0.920500 -1.984040
H -0.921210 -1.242140 -2.984230
O -0.885520  1.737840  0.052730
H -1.032320  2.090180 -0.841890
H -1.284090  0.839590  0.017130
O  0.885520 -1.737840  0.052730
H  1.284090 -0.839590  0.017130
H  1.032320 -2.090180 -0.841890
O  1.737840  0.885520 -0.052730
H  2.090180  1.032320  0.841890
H  0.839590  1.284090 -0.017130
O -1.737840 -0.885520 -0.052730
H -2.090180 -1.032320  0.841890
H -0.839590 -1.284090 -0.017130
O  1.752130  0.741530 -2.896280
H  2.036450  0.920500 -1.984040
H  0.921210  1.242140 -2.984230
O  0.741530 -1.752130  2.896280
H  0.920500 -2.036450  1.984040
H  1.242140 -0.921210  2.984230
O -0.923410  1.794470 -2.768350
H -1.359750  2.338250 -3.430940
H -1.303000  0.879480 -2.865760
O -0.741530  1.752130  2.896280
H -0.920500  2.036450  1.984040
H -1.242140  0.921210  2.984230

