#p b3lyp/6-31G scf=tight

H2O-7-Prism-2

0 1
O  0.458310  2.490940  0.826510
H  0.458060  3.257330  1.406250
H -0.468100  2.136880  0.819630
O -0.969510 -1.249760  1.502060
H -1.312570 -1.699400  2.279590
H -0.825080 -1.946420  0.818960
O  1.327570 -0.891640 -1.427950
H  2.180740 -1.034720 -1.848710
H  1.522860 -0.554760 -0.505430
O  1.590320 -0.045620  1.049270
H  1.361660  0.904580  1.072950
H  0.817890 -0.479970  1.450200
O -0.251800 -2.951010 -0.480920
H  0.343870 -2.329110 -0.951210
H -0.874770 -3.268960 -1.140510
O -1.877290  1.262350  0.417810
H -1.601070  1.192200 -0.515530
H -1.752970  0.372110  0.786360
O -0.316030  1.455220 -1.926320
H  0.254310  0.668510 -1.941430
H  0.176480  2.097770 -1.399190

