#p b3lyp/6-31G scf=tight

H2O-6-Cyclic-2

0 1
O -2.144330 -0.798890  0.919070 
H -2.101650 -0.538870 -0.031610 
H -3.062970 -0.700650  1.180870 
O  2.287650 -0.451280  1.334880 
H  2.567330 -1.358950  1.481600 
H  1.418810 -0.365250  1.794880 
O -0.097850 -0.234760  2.594970
H -0.863030 -0.412120  1.999300
H -0.272040  0.616910  3.004120
O  2.351950  0.426060 -1.226580
H  3.203780  0.858200 -1.325060
H  2.315960  0.101130 -0.295810
O -2.063950 -0.076040 -1.689410
H -2.151260 -0.784350 -2.333010
H -1.268660  0.437420 -1.968360
O  0.121050  1.319750 -2.465430
H  0.066820  2.269940 -2.333930
H  0.945660  1.028730 -2.010250


