lattice_vector 1.6971 -2.9394 0.0000
lattice_vector 1.6971 2.9394 0.0000
lattice_vector 0.0000 0.0000 5.5426

atom   1.6971 0.9798 0.0000 Be
atom   1.6971 -0.9798 2.7713 Be
atom   1.6971 0.9798 2.0785 S
atom   1.6971 -0.9798 4.8498 S
