#p b3lyp/6-311+G(3df.2p) scf=tight

N

0 4
N 0.0 0.0 0.0

