#p b3lyp/6-311+G(3df.2p) scf=tight

N2_1.8

0 1
N 0.0 0.0 0.0
N 0.0 0.0 1.8

