#p b3lyp/6-311+G(3df.2p) scf=tight

N2_4.2

0 1
N 0.0 0.0 0.0
N 0.0 0.0 4.2

