$molecule
0    1
    O     -2.97821428     -0.09986234     -0.00874172
    H     -3.30143673      0.80186438     -0.00000000
    H     -2.01196375     -0.00000000     -0.00000000
    N      0.04804641      0.00000000      0.00000000
    H     -0.10854174     -0.58582471     -0.81032768
    H      0.71716598     -0.49961523      0.57175956
    C      0.62343874      1.27963793     -0.42380313
    H      0.80264204      1.89705928      0.45306887
    H      1.56049242      1.19698549     -0.97849155
    H     -0.09529648      1.80309963     -1.04957233
$end
   
$rem
mem_static = 200
mem_total  = 7500
exchange = b3lyp
basis = G3Large
max_scf_cycles = 50
scf_convergence = 7
symmetry = false
xc_grid = 000075000302
$end
