$molecule
0    1
    O     -2.84959633     -0.21968068     -0.00848481
    H     -3.28354465      0.63437239      0.00000000
    H     -1.90480675     -0.00000000      0.00000000
    C      0.85910412     -2.25436702     -0.05977327
    H      1.80834922     -2.78320441     -0.08971657
    H      0.26110871     -2.52772597     -0.92551872
    H      0.29799814     -2.56095836      0.81943075
    C      1.01570435     -0.75540862     -0.03449353
    O      0.04537049      0.00000000      0.00000000
    N      2.29196965     -0.29854320     -0.05218403
    H      3.03365689     -0.97359432     -0.08072385
    C      2.61259080      1.11201436     -0.03249787
    H      1.67261735      1.65302922     -0.00103092
    H      3.20138996      1.36733876      0.84636131
    H      3.16153741      1.40131667     -0.92646241
$end
   
$rem
mem_static = 200
mem_total  = 7500
exchange = b3lyp
basis = G3Large
max_scf_cycles = 50
scf_convergence = 7
symmetry = false
xc_grid = 000075000302
$end
