$molecule
0    1
    O     -2.84959633     -0.21968068     -0.00848481
    H     -3.28354465      0.63437239      0.00000000
    H     -1.90480675     -0.00000000      0.00000000
    C      0.15994427     -1.83189749     -0.05977327
    H      0.17658020     -2.91838657     -0.08971657
    H     -0.37578923     -1.45069775     -0.92551872
    H     -0.38612461     -1.49926114      0.81943075
    C      1.53638044     -1.21803807     -0.03449353
    O      1.70541656      0.00000000      0.00000000
    N      2.57017014     -2.09488354     -0.05218403
    H      2.35640234     -3.07472909     -0.08072385
    C      3.95205940     -1.66727082     -0.03249787
    H      3.95060528     -0.58272251     -0.00103092
    H      4.46757640     -2.04952365      0.84636131
    H      4.47707585     -1.99802137     -0.92646241
$end
   
$rem
mem_static = 200
mem_total  = 7500
exchange = b3lyp
basis = G3Large
max_scf_cycles = 50
scf_convergence = 7
symmetry = false
xc_grid = 000075000302
$end
