$molecule
0    1
    O     -2.88964497     -0.00189177     -0.16057898
    H     -1.93674253     -0.00000000     -0.00000000
    C     -3.34157200      1.32683832     -0.00000000
    H     -4.40963604      1.33438702     -0.20091548
    H     -3.18635317      1.70273645      1.01412192
    H     -2.86283985      2.01901244     -0.69741685
    O      0.35976924      0.00000000      0.00000000
    H      1.07010234     -0.57716302      0.28993241
    C      0.08076307     -0.30437276     -1.36382417
    H     -0.73462023      0.34413340     -1.66665715
    H      0.93958126     -0.10696706     -2.00481732
    H     -0.23621450     -1.33886286     -1.49381855
$end
   
$rem
mem_static = 200
mem_total  = 7500
exchange = b3lyp
basis = G3Large
max_scf_cycles = 50
scf_convergence = 7
symmetry = false
xc_grid = 000075000302
$end
