$molecule
0    1
    O      0.95290245     -0.00189177      0.16057898
    H      0.00000000      0.00000000      0.00000000
    C      1.40482947      1.32683832      0.00000000
    H      2.47289351      1.33438702      0.20091548
    H      1.24961064      1.70273645     -1.01412192
    H      0.92609732      2.01901244      0.69741685
    O     -1.83532352      0.96837126      0.00000000
    H     -2.53111044      0.70363358     -0.60625538
    C     -2.36880846      0.92491955      1.32060947
    H     -1.56414843      1.20917928      1.99056217
    H     -3.19177743      1.62800537      1.44631672
    H     -2.70460955     -0.07573188      1.59167668
$end
   
$rem
mem_static = 200
mem_total  = 7500
exchange = b3lyp
basis = G3Large
max_scf_cycles = 50
scf_convergence = 7
symmetry = false
xc_grid = 000075000302
$end
