$molecule
0    1
    O      0.95245631      0.16519578     -0.08636954
    H      0.00000000      0.00000000      0.00000000
    C      1.39062207     -0.56587022     -1.21095267
    H      2.45344085     -0.37371974     -1.33590575
    H      1.25416139     -1.64309268     -1.08899313
    H      0.88359256     -0.26236410     -2.13170015
    C     -1.08552770      2.11231450     -1.78524303
    H     -1.50993802      3.08983707     -2.00055747
    H     -0.51307756      1.77853183     -2.64927423
    H     -0.40135362      2.18054712     -0.94395465
    C     -2.13421414      1.07505004     -1.47475159
    O     -1.86159833      0.00000000     -0.94055975
    N     -3.40155924      1.38893235     -1.82965660
    H     -3.56526105      2.24935455     -2.31872084
    C     -4.48934465      0.45220450     -1.64036377
    H     -4.33740342     -0.07179959     -0.70189142
    H     -5.42836818      0.99629134     -1.60440662
    H     -4.53202154     -0.28625225     -2.44008580
$end
   
$rem
mem_static = 200
mem_total  = 7500
exchange = b3lyp
basis = G3Large
max_scf_cycles = 50
scf_convergence = 7
symmetry = false
xc_grid = 000075000302
$end
