$molecule
0    1
    O      0.96481488     -0.00082255      0.00068712
    H     -0.00000000      0.00000000      0.00000000
    C      1.38218395      1.34907361      0.00000000
    H      2.46891574      1.35333597      0.00027378
    H      1.04292703      1.89153543     -0.88569549
    H      1.04245984      1.89261044      0.88486244
    O     -1.88619094     -0.00000000     -0.99260572
    H     -1.87586287     -0.40763820     -1.86133659
    H     -2.63222911     -0.41149480     -0.55093188
$end
   
$rem
mem_static = 200
mem_total  = 7500
exchange = b3lyp
basis = G3Large
max_scf_cycles = 50
scf_convergence = 7
symmetry = false
xc_grid = 000075000302
$end
