$molecule
0    1
    N      0.96354520      0.25648738      0.18030339
    H      0.00000000     -0.00000000      0.00000000
    H      1.51680693     -0.22680018     -0.51478230
    C      1.11486894      1.69836485      0.00000000
    H      2.15226742      1.97971055      0.17052721
    H      0.82172338      2.08065327     -0.98336201
    H      0.51802660      2.21643022      0.74846380
    O     -2.61059850      1.13128731      0.00000000
    H     -3.05597452      0.91545253      0.82269560
    C     -2.39557586      2.53583192     -0.01360777
    H     -1.89307949      2.76670347     -0.94773931
    H     -3.33136764      3.09505235      0.01978407
    H     -1.75786627      2.86299900      0.80881821
$end
   
$rem
mem_static = 200
mem_total  = 7500
exchange = b3lyp
basis = G3Large
max_scf_cycles = 50
scf_convergence = 7
symmetry = false
xc_grid = 000075000302
$end
