$molecule
0    1
    N     -3.04473371      0.61899393      0.02068077
    H     -2.24127006      0.00000000     -0.00000000
    H     -3.85394350      0.03073904      0.16961552
    C     -2.89737020      1.53348186      1.15184025
    H     -3.75889561      2.19726770      1.19830741
    H     -2.78820166      1.05136841      2.12789783
    H     -2.01838137      2.15679501      0.99432490
    C      0.10618335      1.46990294     -1.46491320
    H     -0.06566113      0.70815343     -2.22181003
    H      0.23999205      2.43407846     -1.94984765
    H     -0.76989624      1.50101518     -0.81903214
    C      1.28879054      1.05526269     -0.62717534
    O      1.31185365      0.00000000      0.00000000
    N      2.32235317      1.93491175     -0.58341217
    H      2.29391296      2.74464642     -1.17438493
    C      3.52238371      1.63566230      0.16756704
    H      3.24071474      1.17165483      1.10820791
    H      4.17598980      0.94645109     -0.36652867
    H      4.06043272      2.55808919      0.36561582
$end
   
$rem
mem_static = 200
mem_total  = 7500
exchange = b3lyp
basis = G3Large
max_scf_cycles = 50
scf_convergence = 7
symmetry = false
xc_grid = 000075000302
$end
