$molecule
0    1
    N     -3.04473371      0.61899393      0.02068077
    H     -2.24127006      0.00000000     -0.00000000
    H     -3.85394350      0.03073904      0.16961552
    C     -2.89737020      1.53348186      1.15184025
    H     -3.75889561      2.19726770      1.19830741
    H     -2.78820166      1.05136841      2.12789783
    H     -2.01838137      2.15679501      0.99432490
    C     -0.23495266      1.11713103     -1.87148720
    H      0.34478468      0.57224997     -2.61290131
    H     -0.40670112      2.13130601     -2.22454839
    H     -1.18724318      0.60325117     -1.75017759
    C      0.49657172      1.06069151     -0.55468133
    O      0.76992551      0.00000000      0.00000000
    N      0.81296915      2.25909490      0.00000000
    H      0.64267037      3.09577391     -0.52601753
    C      1.53743325      2.33182094      1.25038234
    H      1.15087581      1.57285222      1.92416675
    H      2.60351365      2.15149018      1.11464494
    H      1.39399893      3.31413592      1.69092212
$end
   
$rem
mem_static = 200
mem_total  = 7500
exchange = b3lyp
basis = G3Large
max_scf_cycles = 50
scf_convergence = 7
symmetry = false
xc_grid = 000075000302
$end
