$molecule
0    1
    N     -1.97960613      0.00000000     -0.00000000
    H     -2.42810491     -0.39474771      0.81664410
    H     -2.45915238     -0.39863242     -0.79681494
    C     -2.15472973      1.45733642      0.00000000
    H     -1.67259676      1.87024102     -0.88214678
    H     -3.19471486      1.78918105      0.01491244
    H     -1.64687032      1.87290804      0.86644120
    O      0.91468222      0.26512447      0.48092752
    H      0.11279647      0.00000000      0.00000000
    H      1.39505937     -0.55552674      0.59708388
$end
   
$rem
mem_static = 200
mem_total  = 7500
exchange = b3lyp
basis = G3Large
max_scf_cycles = 50
scf_convergence = 7
symmetry = false
xc_grid = 000075000302
$end
