$molecule
0    1
    C     -2.75316683      2.37693595     -0.57349118
    H     -1.73375446      2.05431273     -0.77034752
    H     -2.74226884      3.21027701      0.12569857
    H     -3.20708699      2.73057352     -1.49591968
    C     -3.62028983      1.27917410     -0.00000000
    O     -4.81134488      1.44602380      0.24171972
    N     -2.98785428      0.10567720      0.24027936
    H     -2.01480277      0.00000000     -0.00000000
    C     -3.72349718     -1.01460976      0.78255475
    H     -4.25604638     -0.71520402      1.68250986
    H     -4.45971296     -1.38962173      0.07256534
    H     -3.02354648     -1.80916656      1.02435895
    O      0.03178228      0.00000000      0.00000000
    H      0.52388623     -0.60795195     -0.55636269
    C      0.87034667      0.38160175      1.08596428
    H      0.29337327      1.06872302      1.69728765
    H      1.15451801     -0.47288156      1.69979347
    H      1.77023103      0.89343193      0.74482813
$end
   
$rem
mem_static = 200
mem_total  = 7500
exchange = b3lyp
basis = G3Large
max_scf_cycles = 50
scf_convergence = 7
symmetry = false
xc_grid = 000075000302
$end
