$molecule
0    1
    C      0.91406539      2.33143010      0.52767147
    H     -0.10600208      2.06847585      0.79771911
    H      0.89834815      3.11076724     -0.23145952
    H      1.42754350      2.73202157      1.39794145
    C      1.70524004      1.15525046      0.00000000
    O      2.90360158      1.23926929     -0.25258875
    N      0.99934627      0.01480581     -0.17395388
    H      0.00000000      0.00000000     -0.00000000
    C      1.65412761     -1.16043652     -0.70158943
    H      2.53773065     -1.39876519     -0.11345605
    H      0.96044406     -1.99588712     -0.66089693
    H      1.97517019     -1.01171512     -1.73236066
    N     -1.98372051     -0.00000000      1.03286285
    H     -1.98762127      0.43329362      1.94775531
    H     -2.36917535     -0.92556215      1.17276468
    C     -2.85529636      0.75870434      0.12820296
    H     -2.85598277      0.28012362     -0.84822768
    H     -3.88959471      0.85234295      0.46503928
    H     -2.44803443      1.75850398     -0.00283838
$end
   
$rem
mem_static = 200
mem_total  = 7500
exchange = b3lyp
basis = G3Large
max_scf_cycles = 50
scf_convergence = 7
symmetry = false
xc_grid = 000075000302
$end
