$molecule
0    1
    C      0.82164812      2.33052923      0.50294292
    H      1.28894352      2.73639781      1.39672934
    H     -0.20073166      2.03634442      0.72766927
    H      0.82039497      3.11708805     -0.24929677
    C      1.67020801      1.18311120     -0.00000000
    O      2.86949142      1.31936136     -0.22108490
    N      0.99502460      0.02123926     -0.18420489
    H      0.00000000      0.00000000      0.00000000
    C      1.65793020     -1.17287359     -0.65340968
    H      2.69959418     -0.92096032     -0.82783215
    H      1.60299229     -1.97099111      0.08573460
    H      1.21648966     -1.52921881     -1.58371976
    C     -2.39497940      0.17722577     -2.00615901
    H     -2.96976405     -0.01682782     -2.90842545
    H     -1.34501916      0.29401880     -2.26094765
    H     -2.73190086      1.11496130     -1.56797585
    C     -2.52891739     -0.91361389     -0.97271859
    O     -1.77897897     -0.98466511      0.00000000
    N     -3.53919560     -1.79154467     -1.18020144
    H     -4.11835050     -1.66211441     -1.98959713
    C     -3.83237852     -2.86995677     -0.26040748
    H     -3.06714163     -2.85223004      0.50851672
    H     -4.80728070     -2.73629370      0.20449527
    H     -3.80775905     -3.83066187     -0.76995324
$end
   
$rem
mem_static = 200
mem_total  = 7500
exchange = b3lyp
basis = G3Large
max_scf_cycles = 50
scf_convergence = 7
symmetry = false
xc_grid = 000075000302
$end
