$molecule
0    1
    C     -2.79097833      2.33052923     -0.50294292
    H     -3.25827373      2.73639781     -1.39672934
    H     -1.76859856      2.03634442     -0.72766927
    H     -2.78972518      3.11708805      0.24929677
    C     -3.63953822      1.18311120      0.00000000
    O     -4.83882163      1.31936136      0.22108490
    N     -2.96435481      0.02123926      0.18420489
    H     -1.96933021      0.00000000      0.00000000
    C     -3.62726041     -1.17287359      0.65340968
    H     -4.66892439     -0.92096032      0.82783215
    H     -3.57232250     -1.97099111     -0.08573460
    H     -3.18581987     -1.52921881      1.58371976
    C      0.02919584      1.31422723      1.71364795
    H      0.09317877      1.43356421      2.79243607
    H     -0.93624153      0.89039284      1.45045701
    H      0.09492712      2.29479075      1.24562760
    C      1.11871697      0.43650137      1.14936907
    O      1.07338853      0.00000000      0.00000000
    N      2.15283938      0.18133011      1.98600047
    H      2.12646276      0.58299746      2.90538158
    C      3.29958969     -0.60601070      1.58599050
    H      3.10244822     -0.97327734      0.58429363
    H      4.20533989     -0.00280399      1.57210216
    H      3.44234972     -1.45031546      2.25678580
$end
   
$rem
mem_static = 200
mem_total  = 7500
exchange = b3lyp
basis = G3Large
max_scf_cycles = 50
scf_convergence = 7
symmetry = false
xc_grid = 000075000302
$end
