$molecule
0    1
    C     -2.79097833      2.33052923     -0.50294292
    H     -3.25827373      2.73639781     -1.39672934
    H     -1.76859856      2.03634442     -0.72766927
    H     -2.78972518      3.11708805      0.24929677
    C     -3.63953822      1.18311120      0.00000000
    O     -4.83882163      1.31936136      0.22108490
    N     -2.96435481      0.02123926      0.18420489
    H     -1.96933021      0.00000000      0.00000000
    C     -3.62726041     -1.17287359      0.65340968
    H     -4.66892439     -0.92096032      0.82783215
    H     -3.57232250     -1.97099111     -0.08573460
    H     -3.18581987     -1.52921881      1.58371976
    C     -0.52154203      1.11441745      2.00615901
    H     -0.06609437      1.51516877      2.90842545
    H     -1.14766789      0.26352173      2.26094765
    H     -1.16518409      1.87506777      1.56797585
    C      0.49012183      0.68499133      0.97271859
    O      0.17668477      0.00000000      0.00000000
    N      1.75557129      1.12095254      1.18020144
    H      1.93305884      1.68723052      1.98959713
    C      2.83609502      0.83565034      0.26040748
    H      2.43812477      0.18179912     -0.50851672
    H      3.20779049      1.74677193     -0.20449527
    H      3.65578031      0.33397670      0.76995324
$end
   
$rem
mem_static = 200
mem_total  = 7500
exchange = b3lyp
basis = G3Large
max_scf_cycles = 50
scf_convergence = 7
symmetry = false
xc_grid = 000075000302
$end
