$molecule
0    1
    C      1.08424053      0.10590206     -0.00035565
    O      0.37457831      1.10399458     -0.00000000
    O      0.61937910     -1.13325520      0.00014103
    H     -0.37457831     -1.10399458      0.00000000
    C      2.58066759      0.16015481     -0.00333229
    H      2.91207855      1.19114822      0.01498987
    H      2.96394838     -0.37662612      0.86103836
    H      2.95683584     -0.34084207     -0.89224863
    C     -2.53273018     -0.10592628     -1.38777690
    O     -1.91792294     -1.10402313     -1.03318879
    O     -2.13014407      1.13332188     -1.15530668
    H     -1.26926131      1.10402313     -0.65838839
    C     -3.82902675     -0.16013364     -2.13539700
    H     -4.11473433     -1.19126938     -2.30317276
    H     -4.59652934      0.35645545     -1.56413278
    H     -3.72083132      0.36128970     -3.08341802
$end
   
$rem
mem_static = 200
mem_total  = 7500
exchange = b3lyp
basis = G3Large
max_scf_cycles = 50
scf_convergence = 7
symmetry = false
xc_grid = 000075000302
$end
