$molecule
0    1
    C     -2.82316614      0.07908336     -0.00143423
    O     -2.15174910      1.10237217      0.00676747
    O     -2.31697031     -1.14472990     -0.00892873
    H     -1.32423198     -1.10237217     -0.00676747
    C     -4.32151567      0.07548138     -0.00429758
    H     -4.69233391      1.09313851      0.00301400
    H     -4.67997123     -0.45051022     -0.88594306
    H     -4.68348819     -0.46453293      0.86736911
    N      2.22318253     -0.30055981     -1.24586255
    H      2.54207383     -1.24111726     -1.43479935
    C      3.04382195      0.74055164     -1.71843335
    O      4.07378481      0.48748894     -2.31738627
    C      2.52056199      2.05745690     -1.40975752
    H      3.07590373      2.92228173     -1.72913349
    C      1.35788045      2.17390145     -0.73410242
    H      0.92711108      3.13107066     -0.48038994
    N      0.63815553      1.08647813     -0.32018052
    H     -0.24560969      1.18424894      0.19318166
    C      1.04159645     -0.19715783     -0.55963880
    O      0.40319036     -1.18424894     -0.19318166
$end
   
$rem
mem_static = 200
mem_total  = 7500
exchange = b3lyp
basis = G3Large
max_scf_cycles = 50
scf_convergence = 7
symmetry = false
xc_grid = 000075000302
$end
