$molecule
0    1
    C      1.08517559      0.07908336      0.00143423
    O      0.41375856      1.10237217     -0.00676747
    O      0.57897977     -1.14472990      0.00892873
    H     -0.41375856     -1.10237217      0.00676747
    C      2.58352513      0.07548138      0.00429758
    H      2.95434337      1.09313851     -0.00301400
    H      2.94198069     -0.45051022      0.88594306
    H      2.94549765     -0.46453293     -0.86736911
    N     -3.78479823     -0.30055981     -2.10316211
    H     -4.10786795     -1.24111726     -2.28486168
    C     -4.60437627      0.74055164     -2.57757130
    O     -5.63806614      0.48748894     -3.17006885
    C     -4.07542518      2.05745690     -2.27875280
    H     -4.62968375      2.92228173     -2.60000486
    C     -2.90894992      2.17390145     -1.60966859
    H     -2.47384379      3.13107066     -1.36346762
    N     -2.19062058      1.08647813     -1.19332948
    H     -1.30415329      1.18424894     -0.68464744
    C     -2.59971800     -0.19715783     -1.42299043
    O     -1.96315375     -1.18424894     -1.05334310
$end
   
$rem
mem_static = 200
mem_total  = 7500
exchange = b3lyp
basis = G3Large
max_scf_cycles = 50
scf_convergence = 7
symmetry = false
xc_grid = 000075000302
$end
