$molecule
0    1
    C     -2.82316614      0.07908336     -0.00143423
    O     -2.15174910      1.10237217      0.00676747
    O     -2.31697031     -1.14472990     -0.00892873
    H     -1.32423198     -1.10237217     -0.00676747
    C     -4.32151567      0.07548138     -0.00429758
    H     -4.69233391      1.09313851      0.00301400
    H     -4.67997123     -0.45051022     -0.88594306
    H     -4.68348819     -0.46453293      0.86736911
    N      2.63413375     -1.50030712     -0.00675252
    H      2.48483553     -2.50017195     -0.01093094
    C      3.97479819     -1.07216816     -0.00569113
    O      4.88009321     -1.88705211     -0.00941814
    C      4.10714530      0.37205242      0.00000000
    H      5.09435787      0.80069868      0.00108317
    C      3.00078918      1.14526601      0.00379371
    H      3.04643603      2.22415559      0.00813048
    N      1.73805039      0.61866030      0.00239814
    H      0.90181953      1.21435441      0.00510021
    C      1.50250157     -0.72756067     -0.00325836
    O      0.37147085     -1.21435441     -0.00510021
$end
   
$rem
mem_static = 200
mem_total  = 7500
exchange = b3lyp
basis = G3Large
max_scf_cycles = 50
scf_convergence = 7
symmetry = false
xc_grid = 000075000302
$end
