$molecule
0    1
    C      1.11675516      0.15328925      0.00451777
    O      0.43782298      1.18524043     -0.03140120
    N      0.57506307     -1.07550946      0.03773223
    H     -0.43782298     -1.18524043      0.03140120
    H      1.16244371     -1.88618679      0.06629227
    C      2.62133356      0.23105964      0.00914343
    H      2.94319208      0.72823300     -0.90259774
    H      3.10201377     -0.74089083      0.07803337
    H      2.93195443      0.84883291      0.84764462
    N     -3.86039180     -0.02684630     -2.13171795
    H     -4.28085632     -0.91855421     -2.35399237
    C     -4.57058659      1.11241989     -2.54674802
    O     -5.63001448      0.99569674     -3.13916131
    C     -3.90668672      2.35105568     -2.19244995
    H     -4.36939544      3.28355563     -2.46552074
    C     -2.72955326      2.31133369     -1.53150387
    H     -2.19566129      3.20555423     -1.24499809
    N     -2.12247694      1.14040895     -1.17392090
    H     -1.22244607      1.14829441     -0.66734293
    C     -2.66328413     -0.08502353     -1.45842055
    O     -2.13446938     -1.14829441     -1.14461976
$end
   
$rem
mem_static = 200
mem_total  = 7500
exchange = b3lyp
basis = G3Large
max_scf_cycles = 50
scf_convergence = 7
symmetry = false
xc_grid = 000075000302
$end
