$molecule
0    1
    C      1.11675516      0.15328925      0.00451777
    O      0.43782298      1.18524043     -0.03140120
    N      0.57506307     -1.07550946      0.03773223
    H     -0.43782298     -1.18524043      0.03140120
    H      1.16244371     -1.88618679      0.06629227
    C      2.62133356      0.23105964      0.00914343
    H      2.94319208      0.72823300     -0.90259774
    H      3.10201377     -0.74089083      0.07803337
    H      2.93195443      0.84883291      0.84764462
    N     -3.82766645     -0.02684630      2.18272338
    H     -4.23039400     -0.91855421      2.43571912
    C     -4.54219042      1.11241989      2.59025507
    O     -5.58494932      0.99569674      3.21153989
    C     -3.90340936      2.35105568      2.19244995
    H     -4.37124996      3.28355563      2.45663207
    C     -2.74244654      2.31133369      1.50349552
    H     -2.22737927      3.20555423      1.18438439
    N     -2.12923243      1.14040895      1.15654348
    H     -1.24050761      1.14829441      0.63038288
    C     -2.64601995     -0.08502353      1.48264642
    O     -2.10985313     -1.14829441      1.18157981
$end
   
$rem
mem_static = 200
mem_total  = 7500
exchange = b3lyp
basis = G3Large
max_scf_cycles = 50
scf_convergence = 7
symmetry = false
xc_grid = 000075000302
$end
