$molecule
0    1
    C      1.11675516      0.15328925      0.00451777
    O      0.43782298      1.18524043     -0.03140120
    N      0.57506307     -1.07550946      0.03773223
    H     -0.43782298     -1.18524043      0.03140120
    H      1.16244371     -1.88618679      0.06629227
    C      2.62133356      0.23105964      0.00914343
    H      2.94319208      0.72823300     -0.90259774
    H      3.10201377     -0.74089083      0.07803337
    H      2.93195443      0.84883291      0.84764462
    N     -4.37747525     -2.18047025      0.02944800
    H     -4.34321733     -3.19034703      0.04718496
    C     -5.65946773     -1.60511766      0.02511881
    O     -6.65219955     -2.31305193      0.04178780
    C     -5.62744516     -0.15637601      0.00000000
    H     -6.55896979      0.38256619     -0.00513188
    C     -4.43853603      0.48417400     -0.01617063
    H     -4.36116667      1.56140015     -0.03499534
    N     -3.24292844     -0.17760907     -0.01003286
    H     -2.35249332      0.34558922     -0.02133889
    C     -3.15900955     -1.54416602      0.01398682
    O     -2.09488333     -2.15755191      0.02133889
$end
   
$rem
mem_static = 200
mem_total  = 7500
exchange = b3lyp
basis = G3Large
max_scf_cycles = 50
scf_convergence = 7
symmetry = false
xc_grid = 000075000302
$end
