$molecule
0    1
    C      1.11675516      0.15328925      0.00451777
    O      0.43782298      1.18524043     -0.03140120
    N      0.57506307     -1.07550946      0.03773223
    H     -0.43782298     -1.18524043      0.03140120
    H      1.16244371     -1.88618679      0.06629227
    C      2.62133356      0.23105964      0.00914343
    H      2.94319208      0.72823300     -0.90259774
    H      3.10201377     -0.74089083      0.07803337
    H      2.93195443      0.84883291      0.84764462
    N     -4.45279489      2.13397108      0.02944800
    H     -5.31024488      1.59936447      0.04718496
    C     -4.59552117      3.53188543      0.02511881
    O     -5.70497615      4.03764927      0.04178780
    C     -3.32486281      4.22852390      0.00000000
    H     -3.32388750      5.30471899     -0.00513188
    C     -2.17567567      3.51917339     -0.01617063
    H     -1.20408578      3.99078264     -0.03499534
    N     -2.15099282      2.15285531     -0.01003286
    H     -1.25267225      1.64331503     -0.02133889
    C     -3.29250642      1.39690095      0.01398682
    O     -3.29165107      0.16864766      0.02133889
$end
   
$rem
mem_static = 200
mem_total  = 7500
exchange = b3lyp
basis = G3Large
max_scf_cycles = 50
scf_convergence = 7
symmetry = false
xc_grid = 000075000302
$end
