$molecule
0    1
    C     -3.40256416      1.16349320      0.68356587
    H     -3.12890869      2.06501321      1.21468843
    C     -3.15844104      1.06144469     -0.68418760
    H     -2.69040136      1.88053799     -1.21264496
    C     -3.50633113     -0.10174791     -1.36799543
    H     -3.31430617     -0.18176247     -2.42945217
    C     -4.09600260     -1.16339311     -0.68437984
    H     -4.36596668     -2.06610972     -1.21580333
    C     -4.33792388     -1.06200411      0.68466474
    H     -4.79669976     -1.88534556      1.21552612
    C     -3.99316606      0.10264177      1.36812391
    H     -4.18256352      0.18248867      2.43016870
    C      0.60497332      1.16319960      0.76659635
    H      0.57331014      2.06577731      1.36200762
    C      1.49923441      1.06171850     -0.29792060
    H      2.16237914      1.88485284     -0.52789407
    C      1.54204508     -0.10273910     -1.06250942
    H      2.23721841     -0.18262672     -1.88746541
    C      0.68775274     -1.16330490     -0.76545059
    H      0.71604500     -2.06461832     -1.36252688
    C     -0.20772278     -1.06115562      0.29681689
    H     -0.87773195     -1.87998103      0.52002381
    C     -0.24802006      0.10183173      1.06326633
    H     -0.94523035      0.18195555      1.88633439
$end
   
$rem
mem_static = 200
mem_total  = 7500
exchange = b3lyp
basis = G3Large
max_scf_cycles = 50
scf_convergence = 7
symmetry = false
xc_grid = 000075000302
$end
