$molecule
0    1
    C     -0.34630624      1.16349320     -0.68356587
    H     -0.61996171      2.06501321     -1.21468843
    C     -0.59042937      1.06144469      0.68418760
    H     -1.05846904      1.88053799      1.21264496
    C     -0.24253927     -0.10174791      1.36799543
    H     -0.43456424     -0.18176247      2.42945217
    C      0.34713219     -1.16339311      0.68437984
    H      0.61709628     -2.06610972      1.21580333
    C      0.58905348     -1.06200411     -0.68466474
    H      1.04782936     -1.88534556     -1.21552612
    C      0.24429566      0.10264177     -1.36812391
    H      0.43369311      0.18248867     -2.43016870
    C     -3.62483135      3.05558489     -0.68451463
    H     -3.40761575      3.97238238     -1.21598751
    C     -3.88531835      3.08879686      0.68451463
    H     -3.87152831      4.03130883      1.21524987
    C     -4.16857849      1.90773735      1.36807331
    H     -4.37268588      1.93333253      2.43009282
    C     -4.18677238      0.69360570      0.68366665
    H     -4.40010666     -0.22397278      1.21489601
    C     -3.92406641      0.65988417     -0.68402174
    H     -3.92762368     -0.28356019     -1.21232918
    C     -3.64423212      1.84122388     -1.36793506
    H     -3.43766142      1.81447925     -2.42933806
$end
   
$rem
mem_static = 200
mem_total  = 7500
exchange = b3lyp
basis = G3Large
max_scf_cycles = 50
scf_convergence = 7
symmetry = false
xc_grid = 000075000302
$end
