$molecule
0    1
    C     -3.40256416      1.16349320      0.68356587
    H     -3.12890869      2.06501321      1.21468843
    C     -3.15844104      1.06144469     -0.68418760
    H     -2.69040136      1.88053799     -1.21264496
    C     -3.50633113     -0.10174791     -1.36799543
    H     -3.31430617     -0.18176247     -2.42945217
    C     -4.09600260     -1.16339311     -0.68437984
    H     -4.36596668     -2.06610972     -1.21580333
    C     -4.33792388     -1.06200411      0.68466474
    H     -4.79669976     -1.88534556      1.21552612
    C     -3.99316606      0.10264177      1.36812391
    H     -4.18256352      0.18248867      2.43016870
    C      0.09451008      1.18114969      0.68451463
    H     -0.12270552      2.09794718      1.21598751
    C      0.35499708      1.21436166     -0.68451463
    H      0.34120703      2.15687363     -1.21524987
    C      0.63825722      0.03330215     -1.36807331
    H      0.84236461      0.05889733     -2.43009282
    C      0.65645110     -1.18082950     -0.68366665
    H      0.86978539     -2.09840798     -1.21489601
    C      0.39374514     -1.21455103      0.68402174
    H      0.39730240     -2.15799539      1.21232918
    C      0.11391085     -0.03321132      1.36793506
    H     -0.09265986     -0.05995595      2.42933806
$end
   
$rem
mem_static = 200
mem_total  = 7500
exchange = b3lyp
basis = G3Large
max_scf_cycles = 50
scf_convergence = 7
symmetry = false
xc_grid = 000075000302
$end
