$molecule
0    1
    C     -0.34630624      1.16349320     -0.68356587
    H     -0.61996171      2.06501321     -1.21468843
    C     -0.59042937      1.06144469      0.68418760
    H     -1.05846904      1.88053799      1.21264496
    C     -0.24253927     -0.10174791      1.36799543
    H     -0.43456424     -0.18176247      2.42945217
    C      0.34713219     -1.16339311      0.68437984
    H      0.61709628     -2.06610972      1.21580333
    C      0.58905348     -1.06200411     -0.68466474
    H      1.04782936     -1.88534556     -1.21552612
    C      0.24429566      0.10264177     -1.36812391
    H      0.43369311      0.18248867     -2.43016870
    C     -3.68369190      1.16319960     -2.64103155
    H     -3.65202872      2.06577731     -3.23644282
    C     -4.57795299      1.06171850     -1.57651460
    H     -5.24109772      1.88485284     -1.34654113
    C     -4.62076366     -0.10273910     -0.81192578
    H     -5.31593699     -0.18262672      0.01303020
    C     -3.76647131     -1.16330490     -1.10898461
    H     -3.79476357     -2.06461832     -0.51190832
    C     -2.87099580     -1.06115562     -2.17125209
    H     -2.20098663     -1.87998103     -2.39445901
    C     -2.83069851      0.10183173     -2.93770153
    H     -2.13348822      0.18195555     -3.76076960
$end
   
$rem
mem_static = 200
mem_total  = 7500
exchange = b3lyp
basis = G3Large
max_scf_cycles = 50
scf_convergence = 7
symmetry = false
xc_grid = 000075000302
$end
