$molecule
0    1
    N     -3.98763681      0.93966783     -0.95722570
    C     -3.51035071     -0.26305683     -1.30407392
    H     -3.44262545     -0.45732981     -2.36770313
    C     -3.10953283     -1.23395748     -0.38838085
    H     -2.71955502     -2.17958755     -0.73672633
    C     -3.21292380     -0.95213448      0.96901696
    H     -2.91073086     -1.67930326      1.70985103
    C     -3.71028257      0.29090760      1.34806726
    H     -3.81232031      0.55977468      2.39014286
    C     -4.07805857      1.19549430      0.35587503
    H     -4.46755768      2.17061855      0.62265324
    N      1.11444896     -1.15424147     -0.40083504
    C      0.52163782     -1.06643055      0.79859922
    H      0.60081876     -1.94232145      1.43130787
    C     -0.15934182      0.06272494      1.24485679
    H     -0.61257145      0.06858442      2.22632383
    C     -0.24213438      1.16936442      0.40534437
    H     -0.76776793      2.06259008      0.71334170
    C      0.36452947      1.09539105     -0.84327938
    H      0.32074809      1.92201913     -1.53788244
    C      1.02810582     -0.07851747     -1.19451409
    H      1.51125944     -0.16222606     -2.16051969
$end
   
$rem
mem_static = 200
mem_total  = 7500
exchange = b3lyp
basis = G3Large
max_scf_cycles = 50
scf_convergence = 7
symmetry = false
xc_grid = 000075000302
$end
