$molecule
0    1
    N     -3.08264681      0.23512302      0.91450899
    H     -2.85526786      0.51332645      1.86177709
    C     -3.12082026     -1.14224124      0.66270325
    O     -2.93431147     -1.94485242      1.56473787
    N     -3.35865447      0.83938717     -1.29214319
    H     -3.45362877     -2.50289334     -1.01191426
    C     -3.46055182     -0.47862572     -1.64219832
    H     -3.61032040     -0.66951374     -2.69425609
    C     -3.37317714     -1.46768142     -0.72877299
    H     -3.30682599      1.55709449     -1.99705275
    C     -3.12235767      1.26986533      0.00000000
    O     -2.95597949      2.43887142      0.29026084
    N      0.67972659      0.94351253      0.00930079
    H      0.48007583      1.93077344      0.11825344
    C      0.08924349      0.30686617     -1.08979283
    O     -0.58617585      0.94049584     -1.88663587
    N      1.52493382     -0.99675650      0.92122734
    H     -0.03382911     -1.68789434     -1.96857785
    C      1.03216731     -1.71047622     -0.13606398
    H      1.22146781     -2.77304694     -0.10772305
    C      0.35166783     -1.11946364     -1.13997431
    H      1.92498499     -1.46593588      1.71779326
    C      1.34098516      0.36457855      1.07521253
    O      1.71512626      0.97824141      2.05600028
$end
   
$rem
mem_static = 200
mem_total  = 7500
exchange = b3lyp
basis = G3Large
max_scf_cycles = 50
scf_convergence = 7
symmetry = false
xc_grid = 000075000302
$end
