$molecule
0    1
    C     -0.11587643      0.05192952     -1.38749749
    H     -0.20497929      0.09158447     -2.46489807
    C      0.43403345      1.12847653     -0.69417173
    H      0.77393720      2.00269571     -1.23307303
    C      0.55211829      1.07569563      0.69417173
    H      0.98413651      1.90871051      1.23236400
    C      0.11839162     -0.05269075      1.38724045
    H      0.21027354     -0.09438381      2.46425282
    C     -0.43663373     -1.12766463      0.69386470
    H     -0.78494012     -1.99840697      1.23208468
    C     -0.55156311     -1.07585566     -0.69361039
    H     -0.98402939     -1.90889689     -1.23069791
    N     -4.39782465      1.09190759      0.90356288
    C     -4.68250539      1.10907387     -0.40616137
    H     -5.53104544      0.51018609     -0.71440792
    C     -3.96121014      1.84039130     -1.34605225
    H     -4.24546865      1.81117257     -2.38860644
    C     -2.87779361      2.59870990     -0.91452586
    H     -2.28900442      3.17497494     -1.61478436
    C     -2.56670077      2.59114811      0.44021827
    H     -1.72993435      3.15524575      0.82642319
    C     -3.35139397      1.82812098      1.30120993
    H     -3.12972998      1.80300453      2.36119114
$end
   
$rem
mem_static = 200
mem_total  = 7500
exchange = b3lyp
basis = G3Large
max_scf_cycles = 50
scf_convergence = 7
symmetry = false
xc_grid = 000075000302
$end
