$molecule
0    1
    N     -0.36788855     -1.34610766     -0.00026841
    C     -0.07908089     -0.69634675     -1.13751040
    H     -0.15706117     -1.27413960     -2.04975780
    C      0.29054512      0.64544970     -1.18917528
    H      0.50185639      1.10946700     -2.14194627
    C      0.37063929      1.36320864     -0.00000000
    H      0.65018085      2.40778569      0.00040223
    C      0.07860319      0.70487490      1.19018146
    H      0.11450435      1.21930706      2.13942027
    C     -0.28168323     -0.63916464      1.13713798
    H     -0.51362954     -1.17699328      2.04805940
    N     -3.52049102      0.85709343      1.27744138
    H     -3.45617669      1.75540338      0.81884159
    C     -2.96751234      0.78212584      2.56239965
    O     -2.46734315      1.76782703      3.07951310
    C     -3.05819163     -0.54187955      3.14909403
    H     -2.66897110     -0.69735271      4.14043371
    C     -3.60988544     -1.55002093      2.44249188
    H     -3.68279505     -2.55622157      2.82714976
    N     -4.11435495     -1.36215901      1.18588120
    H     -4.46475971     -2.13619867      0.64689160
    C     -4.07773341     -0.15112938      0.52007534
    O     -4.49741566     -0.00000894     -0.61147000
$end
   
$rem
mem_static = 200
mem_total  = 7500
exchange = b3lyp
basis = G3Large
max_scf_cycles = 50
scf_convergence = 7
symmetry = false
xc_grid = 000075000302
$end
