$molecule
0    1
    N     -0.36788855     -1.34610766     -0.00026841
    C     -0.07908089     -0.69634675     -1.13751040
    H     -0.15706117     -1.27413960     -2.04975780
    C      0.29054512      0.64544970     -1.18917528
    H      0.50185639      1.10946700     -2.14194627
    C      0.37063929      1.36320864     -0.00000000
    H      0.65018085      2.40778569      0.00040223
    C      0.07860319      0.70487490      1.19018146
    H      0.11450435      1.21930706      2.13942027
    C     -0.28168323     -0.63916464      1.13713798
    H     -0.51362954     -1.17699328      2.04805940
    N     -3.66307856     -0.81510287     -0.32323090
    H     -3.86541825      0.10535524     -0.68823280
    C     -3.76726400     -0.96181948      1.06606495
    O     -4.10890439     -0.02087596      1.76398292
    C     -3.42731690     -2.29438066      1.52881754
    H     -3.48692759     -2.50832186      2.58195314
    C     -3.03104886     -3.22969660      0.64103522
    H     -2.74919249     -4.22882717      0.93770391
    N     -2.95920357     -2.97129244     -0.69945631
    H     -2.60159796     -3.65861276     -1.34143737
    C     -3.24894983     -1.74020096     -1.25775033
    O     -3.14929823     -1.50816822     -2.44753846
$end
   
$rem
mem_static = 200
mem_total  = 7500
exchange = b3lyp
basis = G3Large
max_scf_cycles = 50
scf_convergence = 7
symmetry = false
xc_grid = 000075000302
$end
