$molecule
0    1
    C     -3.43654554      0.69653429      1.20686639
    H     -3.43841189      1.23747502      2.14352141
    C     -3.43417969      1.39322192      0.00003961
    H     -3.43517182      2.47482319     -0.00000000
    C     -3.43626022      0.69649081     -1.20685572
    H     -3.43816588      1.23746201     -2.14350205
    C     -3.43654947     -0.69653164     -1.20686690
    H     -3.43841911     -1.23747621     -2.14352557
    C     -3.43419265     -1.39322212     -0.00003887
    H     -3.43519543     -2.47482163     -0.00000161
    C     -3.43626930     -0.69649350      1.20685639
    H     -3.43818227     -1.23745961      2.14349708
    C      0.15981542      0.66502748     -0.03235757
    H      0.63256348      1.17382684     -0.86011499
    H     -0.28887104      1.27836776      0.73578863
    C      0.12208753     -0.66502745      0.03300162
    H      0.56298193     -1.27836582     -0.73964371
    H     -0.35839097     -1.17382912      0.85629561
$end
   
$rem
mem_static = 200
mem_total  = 7500
exchange = b3lyp
basis = G3Large
max_scf_cycles = 50
scf_convergence = 7
symmetry = false
xc_grid = 000075000302
$end
