$molecule
0    1
    N     -3.39321271      0.94121396      0.00000000
    H     -3.41186411      1.95154511      0.02185672
    C     -3.43573454      0.35201095     -1.27142320
    O     -3.49569542      1.04564034     -2.27259365
    C     -3.40064108     -1.09889367     -1.23436781
    H     -3.44847538     -1.64180999     -2.16232678
    C     -3.30180933     -1.73473003     -0.04954910
    H     -3.26418957     -2.81096561      0.02981735
    N     -3.23651635     -1.05320961      1.13515832
    H     -3.13302918     -1.53792555      2.01076727
    C     -3.25812877      0.32714799      1.22682079
    O     -3.17296597      0.92421795      2.28242265
    C      0.04624140      0.03548903      0.59559689
    H     -0.56774698      0.88049592      0.87364761
    H      0.16573634     -0.75018719      1.32850595
    C      0.64034650     -0.03556274     -0.59611678
    H      0.53302214      0.75110986     -1.32967356
    H      1.25776441     -0.88054032     -0.86628504
$end
   
$rem
mem_static = 200
mem_total  = 7500
exchange = b3lyp
basis = G3Large
max_scf_cycles = 50
scf_convergence = 7
symmetry = false
xc_grid = 000075000302
$end
