$molecule
0    1
    N     -3.39321271      0.94121396      0.00000000
    H     -3.41186411      1.95154511      0.02185672
    C     -3.43573454      0.35201095     -1.27142320
    O     -3.49569542      1.04564034     -2.27259365
    C     -3.40064108     -1.09889367     -1.23436781
    H     -3.44847538     -1.64180999     -2.16232678
    C     -3.30180933     -1.73473003     -0.04954910
    H     -3.26418957     -2.81096561      0.02981735
    N     -3.23651635     -1.05320961      1.13515832
    H     -3.13302918     -1.53792555      2.01076727
    C     -3.25812877      0.32714799      1.22682079
    O     -3.17296597      0.92421795      2.28242265
    C      0.22029294      0.05076339      0.66460857
    H     -0.54230229      0.58620873      1.21240175
    H      1.02011119     -0.39468208      1.23957896
    C      0.18537050     -0.05144261     -0.66449829
    H     -0.60609847      0.39997384     -1.24611492
    H      0.95393643     -0.58340693     -1.20717983
$end
   
$rem
mem_static = 200
mem_total  = 7500
exchange = b3lyp
basis = G3Large
max_scf_cycles = 50
scf_convergence = 7
symmetry = false
xc_grid = 000075000302
$end
