$molecule
0    1
    N      0.05660286      0.29629730      0.89552659
    H      0.01923738      0.62285489      1.85131715
    C      0.19374019     -1.08835444      0.72548145
    O      0.31137807     -1.82314913      1.69106922
    C      0.18135984     -1.50132634     -0.66720678
    H      0.30659272     -2.54492649     -0.89860454
    C      0.01239182     -0.57958911     -1.63641769
    H     -0.01022077     -0.83638319     -2.68498824
    N     -0.14562760      0.74911566     -1.35053172
    H     -0.32242352      1.42045836     -2.07876447
    C     -0.17946117      1.25534799     -0.06365567
    O     -0.38917970      2.42900525      0.17985030
    C     -3.61779212     -1.10644084     -0.00658222
    H     -4.09334360     -0.15574983      0.00000000
    C     -3.05330152     -2.17974026      0.00452960
    H     -2.56538064     -3.12284251      0.02445919
$end
   
$rem
mem_static = 200
mem_total  = 7500
exchange = b3lyp
basis = G3Large
max_scf_cycles = 50
scf_convergence = 7
symmetry = false
xc_grid = 000075000302
$end
