$molecule
0    1
    C     -3.82708720      0.33480611     -2.53316648
    H     -4.66258726      1.03418388     -2.56319524
    H     -2.90645155      0.91718640     -2.56658994
    H     -3.86856395     -0.27493536     -3.43453883
    C     -3.88324163     -0.51728822     -1.27209867
    H     -3.05768644     -1.23316205     -1.27153644
    H     -4.80166415     -1.10894716     -1.26709647
    C     -3.82097765      0.31715915     -0.00000000
    H     -2.89973211      0.90732904      0.00022517
    H     -4.64550689      1.03639823      0.00006736
    C     -3.88353786     -0.51807152      1.27168085
    H     -3.05830995     -1.23427889      1.27046137
    H     -4.80221813     -1.10928069      1.26617265
    C     -3.82697102      0.33274982      2.53354552
    H     -4.66194567      1.03272120      2.56435060
    H     -3.86909724     -0.27809118      3.43419611
    H     -2.90588506      0.91436273      2.56794589
    C      2.53561413     -0.33448504      2.20443027
    H      1.75486771     -0.91566070      2.69484540
    H      3.27355175     -1.03484968      1.81326932
    H      3.02302205      0.27589387      2.96333629
    C      1.95394035      0.51695194      1.08363912
    H      2.74698503      1.10809200      0.61977726
    H      1.23891161      1.23326147      1.49549814
    C      1.26363719     -0.31751333      0.01326374
    H      1.97745390     -1.03676580     -0.39938123
    H      0.46569857     -0.90764765      0.47375454
    C      0.68188184      0.51806424     -1.11895946
    H      1.48013253      1.10958646     -1.57332611
    H     -0.03227907      1.23404781     -0.70501876
    C      0.00207001     -0.33248435     -2.18378836
    H     -0.81268950     -0.91436724     -1.75315386
    H     -0.41186423      0.27846227     -2.98466511
    H      0.70994472     -1.03221380     -2.62807838
$end
   
$rem
mem_static = 200
mem_total  = 7500
exchange = b3lyp
basis = G3Large
max_scf_cycles = 50
scf_convergence = 7
symmetry = false
xc_grid = 000075000302
$end
