$molecule
0    1
    C     -3.82708720      0.33480611     -2.53316648
    H     -4.66258726      1.03418388     -2.56319524
    H     -2.90645155      0.91718640     -2.56658994
    H     -3.86856395     -0.27493536     -3.43453883
    C     -3.88324163     -0.51728822     -1.27209867
    H     -3.05768644     -1.23316205     -1.27153644
    H     -4.80166415     -1.10894716     -1.26709647
    C     -3.82097765      0.31715915     -0.00000000
    H     -2.89973211      0.90732904      0.00022517
    H     -4.64550689      1.03639823      0.00006736
    C     -3.88353786     -0.51807152      1.27168085
    H     -3.05830995     -1.23427889      1.27046137
    H     -4.80221813     -1.10928069      1.26617265
    C     -3.82697102      0.33274982      2.53354552
    H     -4.66194567      1.03272120      2.56435060
    H     -3.86909724     -0.27809118      3.43419611
    H     -2.90588506      0.91436273      2.56794589
    C      0.00191658     -0.33448504      2.18360383
    H     -0.81316859     -0.91566070      1.75266516
    H      0.70964071     -1.03484968      2.62709608
    H     -0.41161136      0.27589387      2.98516448
    C      0.68171329      0.51695194      1.11946399
    H      1.47995179      1.10809200      1.57432989
    H     -0.03248145      1.23326147      0.70616044
    C      1.26353398     -0.31751333     -0.01354378
    H      1.97780336     -1.03676580      0.39831714
    H      0.46576795     -0.90764765     -0.47433350
    C      1.95319037      0.51806424     -1.08347030
    H      2.74580877      1.10958646     -0.61934823
    H      1.23762675      1.23404781     -1.49498143
    C      2.53545332     -0.33248435     -2.20461906
    H      1.75513315     -0.91436724     -2.69490424
    H      3.02206582      0.27846227     -2.96353500
    H      3.27415713     -1.03221380     -1.81372658
$end
   
$rem
mem_static = 200
mem_total  = 7500
exchange = b3lyp
basis = G3Large
max_scf_cycles = 50
scf_convergence = 7
symmetry = false
xc_grid = 000075000302
$end
