$molecule
0    1
    C     -5.30421700      0.00000085     -0.00002468
    C     -4.79580415      1.43939132      0.00000000
    H     -5.14634660      1.97520031      0.88334658
    H     -3.70525893      1.46835511     -0.00079969
    H     -5.14771257      1.97559265     -0.88255257
    C     -4.79660170     -0.71998623      1.24673382
    H     -5.14767867     -1.75270687      1.26899887
    H     -3.70606730     -0.73430220      1.27250294
    H     -5.14848614     -0.22362316      2.15230228
    C     -4.79649917     -0.71999299     -1.24667256
    H     -5.14898879     -1.75221633     -1.26975632
    H     -3.70596932     -0.73583143     -1.27144830
    H     -5.14685966     -0.22267437     -2.15230581
    C     -6.83060635      0.00058748     -0.00004795
    H     -7.21878255      0.50986887     -0.88324855
    H     -7.21928676     -1.01872864      0.00062685
    H     -7.21876702      0.51106100      0.88246923
    C      0.48713849      0.00000851     -0.00028145
    C      0.04662636     -1.43963550     -0.25283218
    H     -0.89834882     -1.46907464     -0.79717958
    H      0.79168977     -1.97613273     -0.84215587
    H     -0.08973432     -1.97481549      0.68804314
    C      0.67136619      0.71826102     -1.33464319
    H      0.98607746      1.75130314     -1.17960234
    H      1.42941809      0.22135125     -1.94185217
    H     -0.25986108      0.73148378     -1.90279011
    C      1.80874533      0.00016540      0.76336578
    H      2.14619245      1.01965361      0.95520687
    H      2.58603463     -0.51186303      0.19441777
    H      1.70271750     -0.50715611      1.72327789
    C     -0.57605064      0.72120207      0.82428790
    H     -0.72620860      0.22476054      1.78412283
    H     -0.28195692      1.75345372      1.01980005
    H     -1.53259117      0.73701809      0.29994068
$end
   
$rem
mem_static = 200
mem_total  = 7500
exchange = b3lyp
basis = G3Large
max_scf_cycles = 50
scf_convergence = 7
symmetry = false
xc_grid = 000075000302
$end
