$molecule
0    1
    C     -5.30421700      0.00000085     -0.00002468
    C     -4.79580415      1.43939132      0.00000000
    H     -5.14634660      1.97520031      0.88334658
    H     -3.70525893      1.46835511     -0.00079969
    H     -5.14771257      1.97559265     -0.88255257
    C     -4.79660170     -0.71998623      1.24673382
    H     -5.14767867     -1.75270687      1.26899887
    H     -3.70606730     -0.73430220      1.27250294
    H     -5.14848614     -0.22362316      2.15230228
    C     -4.79649917     -0.71999299     -1.24667256
    H     -5.14898879     -1.75221633     -1.26975632
    H     -3.70596932     -0.73583143     -1.27144830
    H     -5.14685966     -0.22267437     -2.15230581
    C     -6.83060635      0.00058748     -0.00004795
    H     -7.21878255      0.50986887     -0.88324855
    H     -7.21928676     -1.01872864      0.00062685
    H     -7.21876702      0.51106100      0.88246923
    C      0.50564144      0.00027849     -0.00001192
    C     -0.65392234     -0.99260476      0.00152879
    H     -1.61308263     -0.47282670      0.00259771
    H     -0.61855804     -1.63251599     -0.88137220
    H     -0.61637187     -1.63225715      0.88453106
    C      0.42514289      0.87612092     -1.24771694
    H      1.24483206      1.59572744     -1.27080326
    H      0.48229772      0.26934057     -2.15260129
    H     -0.51268102      1.43284212     -1.27413297
    C      1.82759397     -0.76276999      0.00052255
    H      2.67349304     -0.07394647     -0.00206175
    H      1.90818501     -1.40053876     -0.88084553
    H      1.91006648     -1.39618994      0.88484474
    C      0.42589537      0.87908250      1.24568065
    H      0.48067686      0.27421309      2.15200105
    H      1.24725073      1.59681430      1.26795227
    H     -0.51065102      1.43806058      1.26985290
$end
   
$rem
mem_static = 200
mem_total  = 7500
exchange = b3lyp
basis = G3Large
max_scf_cycles = 50
scf_convergence = 7
symmetry = false
xc_grid = 000075000302
$end
