$molecule
0    1
    C     -4.95136283     -0.37923179     -1.18716033
    H     -6.03896599     -0.38823650     -1.28081663
    H     -4.53583099     -0.70230647     -2.14066723
    C     -4.47003371      1.02087418     -0.77242971
    H     -5.10216650      1.80659477     -1.18170429
    H     -3.46337463      1.19524576     -1.15156723
    C     -4.46491449      1.01831468      0.77747509
    H     -5.12577555      1.77801029      1.19044444
    H     -3.46477988      1.23288953      1.15262285
    C     -4.89775812     -0.39943494      1.19426516
    H     -5.97762468     -0.42931535      1.34974876
    H     -4.42428480     -0.72912136      2.11799959
    C     -4.54418262     -1.26729972     -0.01277628
    H     -5.04527188     -2.23430943     -0.00882383
    H     -3.46787041     -1.44868896     -0.03977598
    C      0.64943728     -0.00024696      0.00060843
    C      1.95777496     -0.25364204     -0.74344928
    H      1.92808365      0.18587089     -1.74142792
    H      2.80073850      0.18313837     -0.20618755
    H      2.14246848     -1.32345785     -0.85035832
    C      0.42205652      1.50360790      0.13189293
    H     -0.50838347      1.71234087      0.66188574
    H      1.23750087      1.97288921      0.68426191
    H      0.36379166      1.97488861     -0.85034884
    C      0.72807953     -0.62631776      1.39096542
    H     -0.19177729     -0.45302310      1.95101756
    H      1.55471374     -0.19966304      1.96113251
    H      0.88450640     -1.70410003      1.32397035
    C     -0.50545987     -0.62359568     -0.77966156
    H     -0.36984613     -1.70155638     -0.88041523
    H     -1.45731385     -0.44891771     -0.27643336
    H     -0.57106799     -0.19609167     -1.78133825
$end
   
$rem
mem_static = 200
mem_total  = 7500
exchange = b3lyp
basis = G3Large
max_scf_cycles = 50
scf_convergence = 7
symmetry = false
xc_grid = 000075000302
$end
