$molecule
0    1
    C      0.28586422     -0.37923179      1.18716033
    H      1.37346738     -0.38823650      1.28081663
    H     -0.12966762     -0.70230647      2.14066723
    C     -0.19546490      1.02087418      0.77242971
    H      0.43666789      1.80659477      1.18170429
    H     -1.20212399      1.19524576      1.15156723
    C     -0.20058412      1.01831468     -0.77747509
    H      0.46027693      1.77801029     -1.19044444
    H     -1.20071873      1.23288953     -1.15262285
    C      0.23225950     -0.39943494     -1.19426516
    H      1.31212607     -0.42931535     -1.34974876
    H     -0.24121381     -0.72912136     -2.11799959
    C     -0.12131599     -1.26729972      0.01277628
    H      0.37977327     -2.23430943      0.00882383
    H     -1.19762821     -1.44868896      0.03977598
    C     -4.86128353     -2.33235014      0.00000533
    C     -6.03802569     -3.30433797     -0.00979063
    H     -6.66765110     -3.16034655      0.86932988
    H     -6.65599740     -3.15677353     -0.89655471
    H     -5.68793089     -4.33752754     -0.00955145
    C     -5.38582753     -0.89869374      0.00000000
    H     -4.56287041     -0.18253515      0.00623275
    H     -5.99286866     -0.70728972     -0.88608774
    H     -6.00309241     -0.71088369      0.87977875
    C     -4.00518758     -2.56100720     -1.24340027
    H     -3.15943260     -1.87260690     -1.26849124
    H     -4.59160100     -2.40691471     -2.15049656
    H     -3.61262631     -3.57887762     -1.26359427
    C     -4.02130312     -2.56716832      1.25318754
    H     -3.62766070     -3.58462056      1.27263591
    H     -3.17684742     -1.87792085      1.29330613
    H     -4.61958776     -2.41894901      2.15346906
$end
   
$rem
mem_static = 200
mem_total  = 7500
exchange = b3lyp
basis = G3Large
max_scf_cycles = 50
scf_convergence = 7
symmetry = false
xc_grid = 000075000302
$end
