$molecule
0    1
    C     -4.07694610      1.28579828      0.00000000
    H     -4.93945513      1.94562917      0.08441598
    H     -3.19738013      1.92225070     -0.07989448
    C     -4.00447656      0.33915948      1.22612961
    H     -4.86156392      0.50539454      1.87799770
    H     -3.11134878      0.50528862      1.82613393
    C     -4.05870120     -1.08437906      0.65047495
    H     -4.50908697     -1.80028525      1.33624028
    H     -3.05056710     -1.43577636      0.42124062
    C     -4.83454274     -0.91372978     -0.65406377
    H     -5.89416142     -0.75979591     -0.43637061
    H     -4.74960264     -1.76806155     -1.32415239
    C     -4.22884748      0.36731027     -1.22610685
    H     -4.82853717      0.81593487     -2.01632047
    H     -3.24798424      0.13902078     -1.64679706
    C     -0.09579754     -0.61749216     -0.86491022
    H     -0.95720817     -1.03609552     -0.34043441
    H     -0.18064593     -0.89777411     -1.91368035
    C     -0.03842107      0.90384861     -0.65763031
    H     -1.03087013      1.34643361     -0.59076393
    H      0.46266917      1.37202465     -1.50433903
    C      0.79119337      1.11578682      0.63524206
    H      0.22190746      1.62800266      1.40895978
    H      1.66533223      1.73063352      0.42496851
    C      1.22665744     -0.29059667      1.08533069
    H      0.50348289     -0.69756230      1.79429339
    H      2.20065672     -0.29396256      1.57176093
    C      1.18398870     -1.11836452     -0.19849634
    H      1.18787242     -2.19268514     -0.01959778
    H      2.04577407     -0.87777191     -0.82563664
$end
   
$rem
mem_static = 200
mem_total  = 7500
exchange = b3lyp
basis = G3Large
max_scf_cycles = 50
scf_convergence = 7
symmetry = false
xc_grid = 000075000302
$end
