$molecule
0    1
    C     -3.50482014     -1.32303806      0.00017976
    H     -3.16675965     -2.35053745      0.00036914
    C     -3.61502493     -0.62556641      1.20182239
    H     -3.36175603     -1.11159820      2.13440044
    C     -4.05265127      0.69774771      1.20166175
    H     -4.13738389      1.23942759      2.13393124
    C     -4.38091278      1.32314805     -0.00000161
    H     -4.71947906      2.35020793      0.00000000
    C     -4.27138685      0.62540360     -1.20186364
    H     -4.52553541      1.11089111     -2.13420885
    C     -3.83286598     -0.69760281     -1.20183382
    H     -3.74806276     -1.23948803     -2.13407283
    C     -0.14397394      1.16412443      0.16659763
    H     -1.16644812      1.00180197      0.51291695
    H      0.02649032      2.23860908      0.10875200
    C      0.84178263      0.45248640      1.09714231
    H      0.57531282      0.55732308      2.14763015
    H      1.83649426      0.88130789      0.96725514
    C      0.83875640     -1.02198717      0.62905450
    H      0.32375761     -1.66139757      1.34428521
    H      1.85544184     -1.40105178      0.53663134
    C      0.11249334     -1.02948461     -0.73539129
    H     -0.90754813     -1.39371006     -0.60843460
    H      0.60172001     -1.66975640     -1.46763206
    C      0.06330668      0.44025965     -1.16159038
    H     -0.71630380      0.64416212     -1.89458414
    H      1.02025480      0.73838019     -1.59692465
$end
   
$rem
mem_static = 200
mem_total  = 7500
exchange = b3lyp
basis = G3Large
max_scf_cycles = 50
scf_convergence = 7
symmetry = false
xc_grid = 000075000302
$end
