$molecule
0    1
    C     -3.50482014     -1.32303806      0.00017976
    H     -3.16675965     -2.35053745      0.00036914
    C     -3.61502493     -0.62556641      1.20182239
    H     -3.36175603     -1.11159820      2.13440044
    C     -4.05265127      0.69774771      1.20166175
    H     -4.13738389      1.23942759      2.13393124
    C     -4.38091278      1.32314805     -0.00000161
    H     -4.71947906      2.35020793      0.00000000
    C     -4.27138685      0.62540360     -1.20186364
    H     -4.52553541      1.11089111     -2.13420885
    C     -3.83286598     -0.69760281     -1.20183382
    H     -3.74806276     -1.23948803     -2.13407283
    C      0.18971962      1.16412443     -0.33828082
    H     -0.62143880      1.00180197     -1.05060977
    H      0.32504753      2.23860908     -0.21957725
    C     -0.12327742      0.45248640      0.98068175
    H     -1.16626149      0.55732308      1.27515604
    H      0.48656398      0.88130789      1.77718371
    C      0.28058539     -1.02198717      0.74401706
    H     -0.59632196     -1.66139757      0.65563038
    H      0.86896892     -1.40105178      1.57828089
    C      1.09909858     -1.02948461     -0.56716810
    H      0.47913012     -1.39371006     -1.38707158
    H      1.97785102     -1.66975640     -0.50960576
    C      1.44360449      0.44025965     -0.82286454
    H      1.68859046      0.64416212     -1.86452390
    H      2.29908908      0.73838019     -0.21179030
$end
   
$rem
mem_static = 200
mem_total  = 7500
exchange = b3lyp
basis = G3Large
max_scf_cycles = 50
scf_convergence = 7
symmetry = false
xc_grid = 000075000302
$end
