$molecule
0    1
    C     -2.73866046     -1.39144625     -0.00001072
    H     -2.80308137     -2.47120831     -0.00003659
    C     -2.69677587     -0.69569263      1.20721012
    H     -2.72781200     -1.23545287      2.14394710
    C     -2.61518147      0.69565717      1.20711847
    H     -2.58215051      1.23535337      2.14369223
    C     -2.57537289      1.39135101      0.00001072
    H     -2.51042335      2.47080820     -0.00000000
    C     -2.61668339      0.69575377     -1.20712437
    H     -2.58371720      1.23543387     -2.14370232
    C     -2.69838555     -0.69559290     -1.20720015
    H     -2.73038770     -1.23529390     -2.14394887
    C      1.69859201     -2.07671044     -0.00292919
    C      0.89163350     -2.43755704      1.24173856
    H      0.66365192     -3.50460146      1.26169313
    H      1.44780207     -2.19359348      2.14836479
    H     -0.04889482     -1.88549679      1.26326049
    C      3.01059178     -2.85633417     -0.00342923
    H      3.60547185     -2.61414013     -0.88536073
    H      3.60412591     -2.61754544      0.88034824
    H      2.82490155     -3.93155776     -0.00565987
    C      1.99174154     -0.57851986     -0.00017438
    H      2.56918943     -0.29598868     -0.88223988
    H      2.56774775     -0.29892516      0.88375609
    H      1.06711817      0.00000000      0.00000000
    C      0.89337399     -2.43317463     -1.24999002
    H     -0.04704466     -1.88087695     -1.27094451
    H      1.45086918     -2.18621993     -2.15499903
    H      0.66517649     -3.50008430     -1.27386895
$end
   
$rem
mem_static = 200
mem_total  = 7500
exchange = b3lyp
basis = G3Large
max_scf_cycles = 50
scf_convergence = 7
symmetry = false
xc_grid = 000075000302
$end
