$molecule
0    1
    N     -4.14480597     -0.91419328      0.02988765
    H     -3.83761055     -1.87729017      0.03710340
    C     -4.28547813     -0.30516999      1.28457155
    O     -4.06728135     -0.93444062      2.30586447
    C     -4.69481619      1.08627230      1.20590488
    H     -4.84657104      1.63408971      2.11977839
    C     -4.86868076      1.66465762     -0.00000000
    H     -5.16608528      2.69680619     -0.11098557
    N     -4.67407661      0.97749288     -1.16791680
    H     -4.77929922      1.42788878     -2.06167000
    C     -4.27864056     -0.34854421     -1.22002579
    O     -4.07602090     -0.93987739     -2.26230183
    C      0.23867719     -0.00031317      0.00034754
    C      0.15812133      0.60196025      1.40044663
    H      0.62699829     -0.05610625      2.13332039
    H      0.66646111      1.56665055      1.43849576
    H     -0.88054991      0.75268983      1.69817148
    C      1.70113120     -0.20073930     -0.38783920
    H      1.78163398     -0.63212542     -1.38659114
    H      2.23794649      0.74908464     -0.38470376
    H      2.19933683     -0.87288479      0.31214725
    C     -0.42335259      0.94605742     -0.99850954
    H     -0.38229512      0.53249297     -2.00788484
    H      0.08267375      1.91314439     -1.00742454
    H     -1.46922507      1.11681223     -0.73591929
    C     -0.48085725     -1.34697025     -0.01502401
    H     -1.52476169     -1.23670740      0.28333033
    H     -0.44967274     -1.78846898     -1.01299580
    H     -0.00664425     -2.04452147      0.67694869
$end
   
$rem
mem_static = 200
mem_total  = 7500
exchange = b3lyp
basis = G3Large
max_scf_cycles = 50
scf_convergence = 7
symmetry = false
xc_grid = 000075000302
$end
