$molecule
0    1
    C     -3.81603785      0.66618869     -0.00000000
    H     -3.01784723      1.22838153     -0.46330871
    H     -4.61511532      1.22811183      0.46211415
    C     -3.81600865     -0.66618553      0.00015822
    H     -3.01771490     -1.22842253     -0.46308389
    H     -4.61496837     -1.22810848      0.46239310
    C      2.48264130     -2.19057062     -0.33216036
    H      1.75330466     -2.64636549     -1.00232949
    H      3.27821270     -1.77342971     -0.94942787
    H      2.91363287     -2.98179181      0.27936528
    C      1.83457144     -1.10741381      0.52009375
    H      2.57690772     -0.67863250      1.19722674
    H      1.05782291     -1.54571333      1.15046843
    C      1.22293646      0.00667435     -0.31840317
    H      1.99794904      0.45348036     -0.94836913
    H      0.48353349     -0.42072522     -1.00282597
    C      0.56355699      1.09458487      0.51824059
    H      1.30564884      1.52400871      1.19509678
    H     -0.20477626      0.64199549      1.14880363
    C     -0.04998257      2.19621662     -0.33596006
    H     -0.80899386      1.79155153     -1.00601745
    H     -0.51999057      2.96597637      0.27415172
    H      0.70947516      2.67570590     -0.95352393
$end
   
$rem
mem_static = 200
mem_total  = 7500
exchange = b3lyp
basis = G3Large
max_scf_cycles = 50
scf_convergence = 7
symmetry = false
xc_grid = 000075000302
$end
