$molecule
0    1
    C     -3.40739803      1.06606814     -1.54416992
    H     -3.32157988      2.07669079     -1.15082954
    H     -4.27881805      1.01210593     -2.19424056
    H     -2.53160384      0.83471348     -2.14370370
    C     -3.54366891      0.01424118     -0.46865252
    O     -3.40659234     -1.17863823     -0.70806040
    N     -3.84009351      0.49297371      0.77131981
    H     -3.96205190      1.48288781      0.88117614
    C     -4.08239063     -0.38279755      1.89620933
    H     -3.89217395     -1.39607380      1.55614155
    H     -3.41394002     -0.15100243      2.72303269
    H     -5.11379490     -0.31253800      2.23872627
    C      1.07354302     -0.07193082     -2.47350411
    H      0.84653195      0.97446703     -2.68027881
    H      2.15038664     -0.14761062     -2.32102366
    H      0.81982252     -0.64896877     -3.36142641
    C      0.31515198     -0.56197541     -1.24666966
    H      0.56025801     -1.61033676     -1.06109978
    H     -0.76088657     -0.52208409     -1.42692053
    C      0.63957963      0.25034094      0.00000000
    H      1.72028288      0.23622523      0.17375316
    H      0.37283003      1.29834576     -0.17135845
    C     -0.07864540     -0.24985944      1.24598630
    H      0.20734518     -1.28815445      1.42933035
    H     -1.15388571     -0.25330703      1.05752137
    C      0.23791929      0.59295487      2.47421311
    H     -0.05879054      1.63025959      2.31433015
    H     -0.27875545      0.22761883      3.36108950
    H      1.30739829      0.58578745      2.68577752
$end
   
$rem
mem_static = 200
mem_total  = 7500
exchange = b3lyp
basis = G3Large
max_scf_cycles = 50
scf_convergence = 7
symmetry = false
xc_grid = 000075000302
$end
