$molecule
0    1
    C     -0.25275624      1.06606814      1.54416992
    H     -0.33857438      2.07669079      1.15082954
    H      0.61866379      1.01210593      2.19424056
    H     -1.12855042      0.83471348      2.14370370
    C     -0.11648535      0.01424118      0.46865252
    O     -0.25356193     -1.17863823      0.70806040
    N      0.17993924      0.49297371     -0.77131981
    H      0.30189763      1.48288781     -0.88117614
    C      0.42223637     -0.38279755     -1.89620933
    H      0.23201968     -1.39607380     -1.55614155
    H     -0.24621424     -0.15100243     -2.72303269
    H      1.45364063     -0.31253800     -2.23872627
    C     -6.15182744      0.25235297      0.02156536
    H     -5.63185293      1.04505454      0.56053566
    H     -6.91599025      0.72523414     -0.59569349
    H     -6.65536298     -0.37423681      0.75613335
    C     -5.18181247     -0.55123362     -0.83502263
    H     -5.72681083     -1.33658817     -1.36395522
    H     -4.44763554     -1.05470600     -0.20300960
    C     -4.45005507      0.31446680     -1.85207242
    H     -5.17981822      0.84259386     -2.47403424
    H     -3.88187271      1.08869079     -1.32616448
    C     -3.50498627     -0.47783195     -2.74517775
    H     -4.07740211     -1.23402652     -3.28736966
    H     -2.79428136     -1.01843781     -2.11723152
    C     -2.76334709      0.41034899     -3.73522632
    H     -2.17159007      1.16032632     -3.20895831
    H     -2.09059798     -0.16437866     -4.37089109
    H     -3.46277771      0.93888132     -4.38333632
$end
   
$rem
mem_static = 200
mem_total  = 7500
exchange = b3lyp
basis = G3Large
max_scf_cycles = 50
scf_convergence = 7
symmetry = false
xc_grid = 000075000302
$end
