$molecule
0    1
    N     -0.03694286     -1.39359517      0.00000761
    C     -0.02033512     -0.69194767     -1.14200660
    H     -0.03951010     -1.27296190     -2.05574787
    C      0.01677595      0.69941082     -1.19442928
    H      0.02776438      1.20500527     -2.14948564
    C      0.03810266      1.41264648     -0.00000000
    H      0.06753276      2.49344354      0.00006231
    C      0.02065977      0.69927067      1.19441562
    H      0.03470044      1.20479096      2.14947011
    C     -0.01691116     -0.69200337      1.14200591
    H     -0.03340651     -1.27306505      2.05576652
    N     -6.52171442      0.99889233      0.04783135
    C     -5.73454358     -0.08626224      0.03788877
    H     -6.24653251     -1.04076577      0.04399952
    C     -4.34267748     -0.03743488      0.02074040
    H     -3.75833433     -0.94700729      0.01349043
    C     -3.72148288      1.20777005      0.01331966
    H     -2.64270583      1.28710026     -0.00000000
    C     -4.52258741      2.34507199      0.02340059
    H     -4.08989731      3.33574256      0.01821529
    C     -5.90643126      2.18917185      0.04047305
    H     -6.55435533      3.05720084      0.04865107
$end
   
$rem
mem_static = 200
mem_total  = 7500
exchange = b3lyp
basis = G3Large
max_scf_cycles = 50
scf_convergence = 7
symmetry = false
xc_grid = 000075000302
$end
