$molecule
0    1
    C     -2.53254452      1.19524262     -0.71535551
    H     -2.57783162      2.12196101     -1.27120780
    C     -2.46959877     -0.02079865     -1.39408463
    H     -2.46229593     -0.03674450     -2.47528226
    C     -2.41646635     -1.21627642     -0.67865542
    H     -2.36987188     -2.15965929     -1.20533400
    C     -2.42343136     -1.19532997      0.71542263
    H     -2.38222495     -2.12248588      1.27060594
    C     -2.48344695      0.02103934      1.39405121
    H     -2.48667535      0.03757495      2.47526534
    C     -2.53940497      1.21614311      0.67862166
    H     -2.58963996      2.15911501      1.20595349
    N      3.16614376      3.17340220      0.08695191
    C      1.82964893      3.25909740      0.03282904
    H      1.42069704      4.26201587      0.01509689
    C      0.98325344      2.15388097      0.00000000
    H     -0.08830200      2.28852818     -0.04331584
    C      1.54177300      0.88002831      0.02408907
    H      0.91416413      0.00000000      0.00000000
    C      2.92774522      0.77456270      0.08006808
    H      3.41424045     -0.19059419      0.10081818
    C      3.68964491      1.94003192      0.10949859
    H      4.77058025      1.88566828      0.15318937
$end
   
$rem
mem_static = 200
mem_total  = 7500
exchange = b3lyp
basis = G3Large
max_scf_cycles = 50
scf_convergence = 7
symmetry = false
xc_grid = 000075000302
$end
