$molecule
0    1
    C      0.05501531      1.19524262      0.71535551
    H      0.10030240      2.12196101      1.27120780
    C     -0.00793044     -0.02079865      1.39408463
    H     -0.01523328     -0.03674450      2.47528226
    C     -0.06106286     -1.21627642      0.67865542
    H     -0.10765733     -2.15965929      1.20533400
    C     -0.05409785     -1.19532997     -0.71542263
    H     -0.09530426     -2.12248588     -1.27060594
    C      0.00591774      0.02103934     -1.39405121
    H      0.00914613      0.03757495     -2.47526534
    C      0.06187576      1.21614311     -0.67862166
    H      0.11211074      2.15911501     -1.20595349
    N     -6.59067408     -1.60233508     -0.08695191
    C     -5.99664089     -0.40204900     -0.03282904
    H     -6.66071781      0.45357296     -0.01509689
    C     -4.61629764     -0.22165722      0.00000000
    H     -4.19712782      0.77366061      0.04331584
    C     -3.79236865     -1.34227568     -0.02408907
    H     -2.71643734     -1.23876461     -0.00000000
    C     -4.39401886     -2.59529564     -0.08006808
    H     -3.80141609     -3.49919131     -0.10081818
    C     -5.78429467     -2.67238551     -0.10949859
    H     -6.27768204     -3.63568479     -0.15318937
$end
   
$rem
mem_static = 200
mem_total  = 7500
exchange = b3lyp
basis = G3Large
max_scf_cycles = 50
scf_convergence = 7
symmetry = false
xc_grid = 000075000302
$end
