$molecule
0    1
    C      0.05501531      1.19524262      0.71535551
    H      0.10030240      2.12196101      1.27120780
    C     -0.00793044     -0.02079865      1.39408463
    H     -0.01523328     -0.03674450      2.47528226
    C     -0.06106286     -1.21627642      0.67865542
    H     -0.10765733     -2.15965929      1.20533400
    C     -0.05409785     -1.19532997     -0.71542263
    H     -0.09530426     -2.12248588     -1.27060594
    C      0.00591774      0.02103934     -1.39405121
    H      0.00914613      0.03757495     -2.47526534
    C      0.06187576      1.21614311     -0.67862166
    H      0.11211074      2.15911501     -1.20595349
    N     -5.72716867      1.62225711     -3.08255350
    C     -4.78896610      2.36471874     -2.47838629
    H     -4.92539470      3.43774756     -2.53667805
    C     -3.69201125      1.83077098     -1.80715140
    H     -2.96830655      2.48315660     -1.33930347
    C     -3.54726200      0.44832243     -1.75139604
    H     -2.70753645     -0.00000000     -1.23876461
    C     -4.51308371     -0.33599957     -2.37365247
    H     -4.44965489     -1.41509757     -2.36099196
    C     -5.57445621      0.29237654     -3.02041958
    H     -6.33977217     -0.29517142     -3.51272473
$end
   
$rem
mem_static = 200
mem_total  = 7500
exchange = b3lyp
basis = G3Large
max_scf_cycles = 50
scf_convergence = 7
symmetry = false
xc_grid = 000075000302
$end
