$molecule
0    1
    C      0.00006718     -1.39416529      0.00002985
    H     -0.00467199     -2.47544175      0.00008684
    C      0.00045349     -0.69715205     -1.20741435
    H     -0.00376235     -1.23783014     -2.14379257
    C      0.00070810      0.69703705     -1.20735590
    H     -0.00340768      1.23784492     -2.14366983
    C      0.00077083      1.39420421     -0.00001939
    H     -0.00332565      2.47547244     -0.00000000
    C      0.00029211      0.69711865      1.20737892
    H     -0.00443437      1.23773256      2.14380025
    C     -0.00020844     -0.69705276      1.20736264
    H     -0.00522242     -1.23765663      2.14379234
    C     -3.59790541     -1.74545130     -0.00586205
    H     -2.67385313     -1.21756214      0.00000000
    C     -4.65083383     -2.34673648     -0.01297945
    H     -5.57248027     -2.87301956     -0.01911582
$end
   
$rem
mem_static = 200
mem_total  = 7500
exchange = b3lyp
basis = G3Large
max_scf_cycles = 50
scf_convergence = 7
symmetry = false
xc_grid = 000075000302
$end
