$molecule
0    1
    C     -2.71500683      0.60592168      0.00002573
    H     -2.71770808      1.66794022     -0.00000000
    C     -2.71545084     -0.60592168     -0.00002573
    H     -2.71886571     -1.66794248     -0.00013032
    C      1.01506667      0.00017395     -0.52857303
    H      0.09183302      0.00000000      0.00000000
    C      2.06701990      0.00044116     -1.13067295
    H      2.98831496      0.00049415     -1.65780962
$end
   
$rem
mem_static = 200
mem_total  = 7500
exchange = b3lyp
basis = G3Large
max_scf_cycles = 50
scf_convergence = 7
symmetry = false
xc_grid = 000075000302
$end
