$molecule
0    1
    C     -3.91961596      0.69782353      1.20697577
    H     -3.92292174      0.15611512      2.14270698
    C     -3.95195175      2.09196921      1.20677651
    H     -3.98342584      2.63203152      2.14298957
    C     -3.93654452      2.78958018     -0.00012837
    H     -3.95510830      3.87060077      0.00000000
    C     -3.89284285      2.09322325     -1.20716819
    H     -3.87820400      2.63429579     -2.14321434
    C     -3.86013741      0.69911747     -1.20731408
    H     -3.81632550      0.15804549     -2.14235590
    C     -3.87093554      0.00000000     -0.00000000
    H     -3.82298275     -1.07940794      0.00001960
    C     -0.09881374      0.00000000      0.00000000
    O     -0.55004901     -1.06912786     -0.34311879
    O     -0.69475016      1.17910099     -0.27783216
    H     -1.50197712      0.96689060     -0.77839564
    C      1.17050977      0.20566963      0.77273536
    H      1.61546389     -0.75517816      1.00159694
    H      1.86014379      0.80782596      0.18563741
    H      0.95765975      0.75088307      1.68912693
$end
   
$rem
mem_static = 200
mem_total  = 7500
exchange = b3lyp
basis = G3Large
max_scf_cycles = 50
scf_convergence = 7
symmetry = false
xc_grid = 000075000302
$end
