$molecule
0    1
    C      0.04868042      0.69782353     -1.20697577
    H      0.05198619      0.15611512     -2.14270698
    C      0.08101621      2.09196921     -1.20677651
    H      0.11249030      2.63203152     -2.14298957
    C      0.06560898      2.78958018      0.00012837
    H      0.08417276      3.87060077      0.00000000
    C      0.02190731      2.09322325      1.20716819
    H      0.00726846      2.63429579      2.14321434
    C     -0.01079813      0.69911747      1.20731408
    H     -0.05461004      0.15804549      2.14235590
    C      0.00000000      0.00000000      0.00000000
    H     -0.04795279     -1.07940794     -0.00001960
    C     -3.74802182      0.00000000     -1.93546777
    O     -3.29678655     -1.06912786     -1.59234898
    O     -3.15208540      1.17910099     -1.65763561
    H     -2.34485844      0.96689060     -1.15707213
    C     -5.01734532      0.20566963     -2.70820313
    H     -5.46229945     -0.75517816     -2.93706471
    H     -5.70697935      0.80782596     -2.12110518
    H     -4.80449531      0.75088307     -3.62459470
$end
   
$rem
mem_static = 200
mem_total  = 7500
exchange = b3lyp
basis = G3Large
max_scf_cycles = 50
scf_convergence = 7
symmetry = false
xc_grid = 000075000302
$end
