$molecule
0    1
    C      0.12672863      1.38894301     -0.00003446
    H      0.21995767      2.46610966      0.00000000
    C      0.06157062      0.69433699      1.20781822
    H      0.10391795      1.23353365      2.14396768
    C     -0.06349565     -0.69441895      1.20739276
    H     -0.11526469     -1.23234759      2.14396588
    C     -0.12361487     -1.38867605      0.00004152
    H     -0.22162519     -2.46561554      0.00009465
    C     -0.06230328     -0.69455742     -1.20736766
    H     -0.11290872     -1.23260825     -2.14394575
    C      0.06278497      0.69417447     -1.20785596
    H      0.10601806      1.23328685     -2.14401594
    O     -3.65735346     -1.05502770      0.01437748
    H     -2.82844779     -0.56611897      0.01630572
    C     -3.32929070     -2.43099097     -0.01483682
    H     -4.26556986     -2.98252064     -0.01557717
    H     -2.76874042     -2.70532911     -0.91147556
    H     -2.75074172     -2.73851071      0.85932490
$end
   
$rem
mem_static = 200
mem_total  = 7500
exchange = b3lyp
basis = G3Large
max_scf_cycles = 50
scf_convergence = 7
symmetry = false
xc_grid = 000075000302
$end
