$molecule
0    1
    C      0.27156556     -0.65835298      1.19841009
    H      0.48201216     -1.16919652      2.12805610
    C      0.25794654     -1.37028665     -0.00015124
    H      0.45453628     -2.43353773     -0.00030994
    C     -0.01462116     -0.71181510     -1.19861773
    H     -0.03072268     -1.26496445     -2.12752047
    C     -0.27133916      0.65835320     -1.19825725
    H     -0.48307139      1.16858150     -2.12791611
    C     -0.25648699      1.37038204      0.00011574
    H     -0.45606134      2.43318631      0.00000000
    C      0.01369685      0.71188772      1.19844696
    H      0.02423115      1.26392618      2.12832702
    N     -3.60257385     -0.66319376     -1.51468860
    H     -2.70459511     -0.70262825     -1.04747032
    H     -4.29242064     -0.76258740     -0.78114063
    C     -3.75422970      0.64752485     -2.14300784
    H     -4.72651197      0.70456222     -2.62893550
    H     -3.66251223      1.50161810     -1.46417651
    H     -2.99896650      0.75908083     -2.91849554
$end
   
$rem
mem_static = 200
mem_total  = 7500
exchange = b3lyp
basis = G3Large
max_scf_cycles = 50
scf_convergence = 7
symmetry = false
xc_grid = 000075000302
$end
