$molecule
0    1
    C     -3.86914625     -0.65835298     -1.19841009
    H     -4.07959285     -1.16919652     -2.12805610
    C     -3.85552723     -1.37028665      0.00015124
    H     -4.05211697     -2.43353773      0.00030994
    C     -3.58295953     -0.71181510      1.19861773
    H     -3.56685801     -1.26496445      2.12752047
    C     -3.32624153      0.65835320      1.19825725
    H     -3.11450930      1.16858150      2.12791611
    C     -3.34109370      1.37038204     -0.00011574
    H     -3.14151934      2.43318631     -0.00000000
    C     -3.61127754      0.71188772     -1.19844696
    H     -3.62181184      1.26392618     -2.12832702
    N     -0.16597713     -0.47269143     -0.21067572
    H     -1.06148987     -0.00120192     -0.16630925
    H     -0.01592445     -0.67409427     -1.19087030
    C      0.87519428      0.43967547      0.25763678
    H      1.84333751     -0.05342121      0.19232134
    H      0.93951021      1.38876458     -0.28438967
    H      0.70032089      0.66945241      1.30686043
$end
   
$rem
mem_static = 200
mem_total  = 7500
exchange = b3lyp
basis = G3Large
max_scf_cycles = 50
scf_convergence = 7
symmetry = false
xc_grid = 000075000302
$end
