$molecule
0    1
    C     -2.31556955      1.32579990     -0.42928166
    H     -2.27327745      2.35376309     -0.76230218
    C     -2.44440151      0.29605065     -1.36071003
    H     -2.49934308      0.52567993     -2.41581833
    C     -2.50089941     -1.02909552     -0.93154141
    H     -2.60234258     -1.82728229     -1.65392742
    C     -2.42552255     -1.32566962      0.42884995
    H     -2.46976634     -2.35364179      0.76166730
    C     -2.29416080     -0.29671210      1.36083960
    H     -2.23498973     -0.52635683      2.41585081
    C     -2.24064309      1.02962701      0.93180178
    H     -2.14297373      1.82783409      1.65502758
    C      1.62457303      1.97080240     -0.79139992
    H      0.94033874      2.07868421      0.04686126
    H      1.28152889      2.59090886     -1.61689044
    H      2.61174240      2.32349981     -0.50366953
    C      1.74860226      0.54569299     -1.28082248
    O      2.54310285      0.23256512     -2.15954915
    N      0.92029108     -0.34257880     -0.67096131
    H      0.25382815      0.00000000      0.00000000
    C      0.87733867     -1.73325733     -1.05705499
    H      1.74072096     -1.92178594     -1.68782889
    H      0.92043798     -2.37479907     -0.17912814
    H     -0.02770446     -1.96650142     -1.61846136
$end
   
$rem
mem_static = 200
mem_total  = 7500
exchange = b3lyp
basis = G3Large
max_scf_cycles = 50
scf_convergence = 7
symmetry = false
xc_grid = 000075000302
$end
