$molecule
0    1
    N     -2.95484705      0.91597414      0.00259397
    C     -2.97206631     -0.42663190     -0.00755715
    H     -2.00473502     -0.91597414     -0.00259397
    C     -4.14615124     -1.17618933     -0.02408888
    H     -4.09482168     -2.25565349     -0.03159854
    C     -5.36876196     -0.51344265     -0.03074710
    H     -6.29898766     -1.06453641     -0.04367307
    C     -5.36439005      0.87747129     -0.02042274
    H     -6.28627339      1.44152430     -0.02504168
    C     -4.14055585      1.54062493     -0.00389091
    H     -4.10677747      2.62326092      0.00450705
    N      1.28687437     -0.55586151     -0.00810806
    C      2.62602052     -0.50412178     -0.02016120
    H      3.13789964     -1.45872363     -0.02556260
    C      3.35450180      0.68209427     -0.02583604
    H      4.43485443      0.65442933     -0.03570293
    C      2.66305444      1.88899468     -0.01857360
    H      3.19324733      2.83137037     -0.02264139
    C      1.27289876      1.85180116     -0.00600834
    H      0.68889221      2.76110922      0.00000000
    C      0.63070101      0.61562736     -0.00124899
    H     -0.45168091      0.55586151      0.00810806
$end
   
$rem
mem_static = 200
mem_total  = 7500
exchange = b3lyp
basis = G3Large
max_scf_cycles = 50
scf_convergence = 7
symmetry = false
xc_grid = 000075000302
$end
