$molecule
0    1
    N      0.47505601      0.91597414     -0.00259397
    C      0.49227527     -0.42663190      0.00755715
    H     -0.47505601     -0.91597414      0.00259397
    C      1.66636020     -1.17618933      0.02408888
    H      1.61503064     -2.25565349      0.03159854
    C      2.88897092     -0.51344265      0.03074710
    H      3.81919662     -1.06453641      0.04367307
    C      2.88459901      0.87747129      0.02042274
    H      3.80648235      1.44152430      0.02504168
    C      1.66076482      1.54062493      0.00389091
    H      1.62698643      2.62326092     -0.00450705
    N     -2.62845908     -0.91602901      1.48436019
    C     -3.64919609     -1.54079416      2.08760074
    H     -3.61705000     -2.62344317      2.07527819
    C     -4.70636624     -0.87774157      2.70451095
    H     -5.49971800     -1.44187643      3.17394611
    C     -4.71401515      0.51318852      2.70054111
    H     -5.51768656      1.06421337      3.16923809
    C     -3.66157575      1.17605583      2.07840583
    H     -3.62031695      2.25554299      2.04764721
    C     -2.64702816      0.42659679      1.48716088
    H     -1.81404087      0.91602901      0.99543085
$end
   
$rem
mem_static = 200
mem_total  = 7500
exchange = b3lyp
basis = G3Large
max_scf_cycles = 50
scf_convergence = 7
symmetry = false
xc_grid = 000075000302
$end
