$molecule
0    1
    C      1.06650942      0.00286633     -0.01251769
    H      0.00000000      0.00000000      0.00000000
    C      2.27906444      0.00631506     -0.02771635
    H      3.34024263      0.00915763     -0.03998539
    O     -2.08292272      1.11610625      0.00000000
    H     -2.19996763      2.06819375      0.00000000
    H     -2.94633108      0.77741211     -0.24478380
$end
   
$rem
mem_static = 200
mem_total  = 7500
exchange = b3lyp
basis = G3Large
max_scf_cycles = 50
scf_convergence = 7
symmetry = false
xc_grid = 000075000302
$end
