$molecule
0    1
    C     -2.22798374     -0.59566805      0.00000525
    H     -1.97865159     -1.63011710      0.00006033
    C     -2.45674907      0.59566805     -0.00000525
    H     -2.67663422      1.63480569      0.00000000
    C      1.59837341     -1.80989264      0.00305500
    O      0.45316030     -2.20435124      0.00162922
    O      1.93044597     -0.50217697      0.00179691
    H      1.09633271      0.00000000      0.00000000
    C      2.81897227     -2.67989235      0.00630997
    H      2.52207460     -3.72163188      0.01008932
    H      3.42278692     -2.46372049     -0.87188336
    H      3.42305510     -2.45711855      0.88261870
$end
   
$rem
mem_static = 200
mem_total  = 7500
exchange = b3lyp
basis = G3Large
max_scf_cycles = 50
scf_convergence = 7
symmetry = false
xc_grid = 000075000302
$end
