$molecule
0    1
    C     -2.22798374     -0.59566805      0.00000525
    H     -1.97865159     -1.63011710      0.00006033
    C     -2.45674907      0.59566805     -0.00000525
    H     -2.67663422      1.63480569      0.00000000
    C      1.25402539     -1.31639265      0.67250887
    O      0.56663404     -2.23061038      0.27399694
    O      0.93745137     -0.01784138      0.48828205
    H      0.09531587      0.00000000      0.00000000
    C      2.54456798     -1.45953508      1.42136249
    H      2.77109150     -2.51015681      1.55650993
    H      3.34292047     -0.97041743      0.86824120
    H      2.46301185     -0.96456589      2.38615020
$end
   
$rem
mem_static = 200
mem_total  = 7500
exchange = b3lyp
basis = G3Large
max_scf_cycles = 50
scf_convergence = 7
symmetry = false
xc_grid = 000075000302
$end
