$molecule
0    1
    C     -2.22798374     -0.59566805      0.00000525
    H     -1.97865159     -1.63011710      0.00006033
    C     -2.45674907      0.59566805     -0.00000525
    H     -2.67663422      1.63480569      0.00000000
    C      1.84288785     -0.47016632      0.00305500
    O      1.61189247     -1.65917927      0.00162922
    O      0.87640915      0.47127479      0.00179691
    H      0.02445450      0.00000000      0.00000000
    C      3.20662914      0.15190345      0.00630997
    H      3.96035320     -0.62608724      0.01008932
    H      3.32132613      0.78290820     -0.87188336
    H      3.31574278      0.78644142      0.88261870
$end
   
$rem
mem_static = 200
mem_total  = 7500
exchange = b3lyp
basis = G3Large
max_scf_cycles = 50
scf_convergence = 7
symmetry = false
xc_grid = 000075000302
$end
