$molecule
0    1
    C     -3.80066598      0.31602088     -2.52900883
    H     -4.76417010      0.82600094     -2.52155566
    H     -3.02805355      1.08229505     -2.60298433
    H     -3.75152033     -0.29340158     -3.43014993
    C     -3.62079955     -0.52224379     -1.26988945
    H     -2.67423491     -1.06503601     -1.30791690
    H     -4.40798563     -1.27808525     -1.22020277
    C     -3.66010145      0.31753923      0.00000000
    H     -2.85636567      1.06069449     -0.03243256
    H     -4.59644683      0.88362759      0.03357700
    C     -3.52253031     -0.51068351      1.27042066
    H     -2.59363079     -1.08172811      1.22161012
    H     -4.33447175     -1.24052199      1.30863623
    C     -3.54908497      0.34748750      2.52862997
    H     -4.48792346      0.89608974      2.60707191
    H     -3.43837533     -0.25329434      3.43048872
    H     -2.74264570      1.08156228      2.51204280
    C      0.45520578     -0.07204530      0.01526672
    O     -0.34886069     -0.99056771      0.02466833
    N      0.90256374      0.51761418      1.16016959
    H      0.47744012      0.24255368      2.02786899
    H      1.47521923      1.33871706      1.13819118
    C      1.01837121      0.49705961     -1.26520152
    H      1.89416795      1.12197196     -1.10892334
    H      0.24248312      1.08829668     -1.74874102
    H      1.27034898     -0.32537825     -1.92781804
$end
   
$rem
mem_static = 200
mem_total  = 7500
exchange = b3lyp
basis = G3Large
max_scf_cycles = 50
scf_convergence = 7
symmetry = false
xc_grid = 000075000302
$end
