$molecule
0    1
    C     -0.27518152     -1.72495784      0.73223655
    H      0.24422677     -1.68761943      1.68714717
    H      0.09816081     -2.56039874      0.14748746
    H     -1.33698581     -1.88582492      0.91123396
    C     -0.12048148     -0.46196867     -0.07915269
    O     -0.40096816     -0.41377721     -1.27018644
    N      0.33122194      0.61926180      0.61526061
    H      0.49532322      0.51822720      1.59982350
    C      0.46084756      1.92130902     -0.00000000
    H      0.44423912      1.77355873     -1.07517322
    H     -0.36087631      2.58397652      0.27225678
    H      1.40108803      2.38572717      0.28724517
    C     -3.92137597      0.44269701     -1.34509457
    H     -4.95100511      0.66300178     -1.10058107
    H     -3.15423590      0.97355894     -0.79857231
    C     -3.60104059     -0.44360219     -2.28787061
    H     -4.36680036     -0.97162163     -2.83874935
    H     -2.56738937     -0.65415283     -2.52352490
$end
   
$rem
mem_static = 200
mem_total  = 7500
exchange = b3lyp
basis = G3Large
max_scf_cycles = 50
scf_convergence = 7
symmetry = false
xc_grid = 000075000302
$end
