$molecule
0    1
    N      0.00000000      0.00000000      0.00000000
    C      0.69654419      1.14491094      0.00000000
    H      0.11228471      2.05568355     -0.04506045
    C      2.08628744      1.20051155      0.05393479
    H      2.59010798      2.15636402      0.05132640
    C      2.80075313      0.00851164      0.11103472
    H      3.88099184      0.01179136      0.15322902
    C      2.09117552     -1.18778276      0.11253986
    H      2.59899038     -2.14048352      0.15672388
    C      0.70123884     -1.14063972      0.05615145
    H      0.12077099     -2.05488219      0.05599065
    C     -3.95362513     -0.00617013      2.32162792
    H     -4.85766245     -0.00945905      2.87757727
    C     -2.91992386     -0.00251396      1.68607810
    H     -2.00669954     -0.00000000      1.12648362
$end
   
$rem
mem_static = 200
mem_total  = 7500
exchange = b3lyp
basis = G3Large
max_scf_cycles = 50
scf_convergence = 7
symmetry = false
xc_grid = 000075000302
$end
