$molecule
0    1
    N     -3.10940530     -0.16639162     -0.65848319
    H     -2.35693509     -0.00000000     -0.00000000
    H     -3.93761205      0.24641005     -0.24947096
    C     -2.79648083      0.51830779     -1.91164348
    H     -3.60416922      0.35710286     -2.62338530
    H     -2.63319408      1.59745418     -1.82575053
    H     -1.89638419      0.08143731     -2.34131497
    N      0.11586372      0.00000000      0.00000000
    C      0.78910977     -0.97027679     -0.63506446
    H      0.70909863     -1.96099360     -0.20635941
    C      1.54069112     -0.75918303     -1.78764784
    H      2.05867370     -1.58508529     -2.25379506
    C      1.60204318      0.52408404     -2.32103373
    H      2.17306931      0.72540436     -3.21674178
    C      0.90875537      1.54136098     -1.67365913
    H      0.92303405      2.55539212     -2.04702824
    C      0.18614460      1.23119883     -0.52476786
    H     -0.36395798      2.00258183      0.00000000
$end
   
$rem
mem_static = 200
mem_total  = 7500
exchange = b3lyp
basis = G3Large
max_scf_cycles = 50
scf_convergence = 7
symmetry = false
xc_grid = 000075000302
$end
