$molecule
0    1
    N      0.75247021     -0.16639162      0.65848319
    H      0.00000000      0.00000000     -0.00000000
    H      1.58067696      0.24641005      0.24947096
    C      0.43954574      0.51830779      1.91164348
    H      1.24723413      0.35710286      2.62338530
    H      0.27625899      1.59745418      1.82575053
    H     -0.46055090      0.08143731      2.34131497
    N     -2.23097603      1.17846755      0.00000000
    C     -2.90422208      0.20819076      0.63506446
    H     -2.82421093     -0.78252605      0.20635941
    C     -3.65580343      0.41928451      1.78764784
    H     -4.17378600     -0.40661774      2.25379506
    C     -3.71715549      1.70255158      2.32103373
    H     -4.28818161      1.90387190      3.21674178
    C     -3.02386767      2.71982852      1.67365913
    H     -3.03814636      3.73385967      2.04702824
    C     -2.30125690      2.40966638      0.52476786
    H     -1.75115433      3.18104938      0.00000000
$end
   
$rem
mem_static = 200
mem_total  = 7500
exchange = b3lyp
basis = G3Large
max_scf_cycles = 50
scf_convergence = 7
symmetry = false
xc_grid = 000075000302
$end
