lattice_vector 1.4877 -2.5768 0.0000
lattice_vector 1.4877 2.5768 0.0000
lattice_vector 0.0000 0.0000 4.8589

atom   1.4877 0.8589 0.0000 Li
atom   1.4877 -0.8589 2.4295 Li
atom   1.4877 0.8589 1.8221 F
atom   1.4877 -0.8589 4.2516 F
