lattice_vector 1.3299 -2.3034 0.0000
lattice_vector 1.3299 2.3034 0.0000
lattice_vector 0.0000 0.0000 4.3434

atom   1.3299 0.7678 0.0000 Be
atom   1.3299 -0.7678 2.1717 Be
atom   1.3299 0.7678 1.6288 O
atom   1.3299 -0.7678 3.8004 O
