#p b3lyp 6-311+g(3df,2p) scf=tight nosymm

acetyl

1    1
    O      0.00000000      0.00000000     -2.06340459
    C      0.00000000      0.00000000     -0.94192072
    C      0.00000000      0.00000000      0.50212542
    H     -0.51999571     -0.90065899      0.83439996
    H     -0.51999571      0.90065899      0.83439996
    H      1.03999142      0.00000000      0.83439996
 
 
 
