#p b3lyp 6-311+g(3df,2p) scf=tight nosymm

c2h4_f2

0    1
    C      0.00000000      0.66709014     -0.93842870
    C      0.00000000     -0.66709014     -0.93842870
    H      0.92284046      1.23043970     -0.93833619
    H     -0.92284046      1.23043970     -0.93833619
    H      0.92284046     -1.23043970     -0.93833619
    H     -0.92284046     -1.23043970     -0.93833619
    F      0.00000000      0.00000000      2.10748388
    F      0.00000000      0.00000000      3.52271826
 
 
 
