#p b3lyp 6-311+g(3df,2p) scf=tight nosymm

ch3

0    2
    C      0.00000000      0.00000000      0.00000000
    H     -0.53743062      0.93085714      0.00000000
    H     -0.53743062     -0.93085714      0.00000000
    H      1.07486124      0.00000000      0.00000000
 
 
 
