#p b3lyp 6-311+g(3df,2p) scf=tight nosymm

clclf

0    2
   Cl     -0.73307782     -1.58992194      0.00000000
    F     -0.76271797      0.09444467      0.00000000
   Cl      1.49579579      1.49547727      0.00000000
 
 
 
