#p b3lyp 6-311+g(3df,2p) scf=tight nosymm

clfcl

0    2
   Cl      2.03111515     -0.15183410      0.00000000
    F     -1.91074290     -0.11837224      0.00000000
   Cl     -0.12037226      0.27020634      0.00000000
 
 
 
