#p b3lyp 6-311+g(3df,2p) scf=tight nosymm

h2o+

1    2
    O      0.00000000      0.00000000      0.38514944
    H     -0.81309158      0.00000000     -0.19257472
    H      0.81309158      0.00000000     -0.19257472
 
 
 
