#p b3lyp 6-311+g(3df,2p) scf=tight nosymm

h2o

0    1
    O      0.00000000      0.00000000      0.39393879
    H     -0.75501313      0.00000000     -0.19696940
    H      0.75501313      0.00000000     -0.19696940
 
 
 
