#p b3lyp 6-311+g(3df,2p) scf=tight nosymm

he2+

1    2
   He      0.00000000      0.00000000      0.53722732
   He      0.00000000      0.00000000     -0.53722732
 
 
 
