#p b3lyp 6-311+g(3df,2p) scf=tight nosymm

li_f2

0    2
    F      0.00000000      0.00000000     -1.66242998
   Li      0.00000000      0.00000000      0.00000000
    F      0.00000000      0.00000000      1.66242998
 
 
 
