#p b3lyp 6-311+g(3df,2p) scf=tight nosymm

na

0    2
   Na      0.00000000      0.00000000      0.00000000
 
 
 
