#p b3lyp 6-311+g(3df,2p) scf=tight nosymm

naomg

0    2
    O      0.00000000      0.00000000      0.07047757
   Mg      0.00000000      0.00000000      1.86504473
   Na      0.00000000      0.00000000     -1.93552230
 
 
 
