#p b3lyp 6-311+g(3df,2p) scf=tight nosymm

nh3+

1    2
    N      0.00000000      0.00000000      0.00000000
    H      0.50937307     -0.88226004      0.00000000
    H      0.50937307      0.88226004      0.00000000
    H     -1.01874615      0.00000000      0.00000000
 
 
 
