#p b3lyp 6-311+g(3df,2p) scf=tight nosymm

nh3

0    1
    N      0.00000000      0.00000000     -0.28910284
    H     -0.46758771     -0.80988567      0.09636761
    H     -0.46758771      0.80988567      0.09636761
    H      0.93517542      0.00000000      0.09636761
 
 
 
