#p b3lyp 6-311+g(3df,2p) scf=tight nosymm

nh32+

1    2
    N      0.00000000      0.00000000     -1.08323210
    N      0.00000000      0.00000000      1.08323210
    H      0.84294387      0.48667387     -1.35891638
    H      0.00000000     -0.97334774     -1.35891638
    H     -0.84294387      0.48667387     -1.35891638
    H      0.84294387     -0.48667387      1.35891638
    H      0.00000000      0.97334774      1.35891638
    H     -0.84294387     -0.48667387      1.35891638
 
 
 
