#p b3lyp 6-311+g(3df,2p) scf=tight nosymm

nh3_clf

0    1
    N      0.00000000      0.00000000      0.87037732
   Cl      0.00000000      0.00000000     -1.42272995
    F      0.00000000      0.00000000     -3.12215047
    H     -0.47329133     -0.81976463      1.22483436
    H     -0.47329133      0.81976463      1.22483436
    H      0.94658265      0.00000000      1.22483436
 
 
 
