#p b3lyp/6-311+G(3df.2p) scf=tight

C

0 3
C 0.0 0.0 0.0

