#p b3lyp/6-311+G(3df.2p) scf=tight

C2_model

0 1
C 0.0 0.0 0.0
C 0.0 0.0 model

