$molecule
0    1
    C      0.00000000      0.66240695      0.00000000
    C      0.00000000     -0.66240695      0.00000000
    H      0.92199393      1.23058091      0.00000000
    H      0.92199393     -1.23058091      0.00000000
    H     -0.92199393      1.23058091      0.00000000
    H     -0.92199393     -1.23058091      0.00000000
$end
   
$rem
mem_static = 200
mem_total  = 7500
exchange = b3lyp
basis = G3Large
max_scf_cycles = 50
scf_convergence = 7
symmetry = false
xc_grid = 000075000302
$end
