$molecule
0    1
    O     -0.52502339     -1.55632503      0.00000000
    O      0.08757357     -1.18304106      1.05099092
    O      0.08757357     -1.18304106     -1.05099092
    C      0.08757357      0.83346380      0.61486296
    C      0.08757357      0.83346380     -0.61486296
    H      0.08736457      1.12773977      1.63923888
    H      0.08736457      1.12773977     -1.63923888
$end
   
$rem
mem_static = 200
mem_total  = 7500
exchange = b3lyp
basis = G3Large
max_scf_cycles = 50
scf_convergence = 7
symmetry = false
xc_grid = 000075000302
$end
