$molecule
0    1
    O     -0.52427396     -2.20256851      0.00000000
    O      0.06504800     -1.96170752      1.06006092
    O      0.06504800     -1.96170752     -1.06006092
    C      0.06504800      1.01767026      0.66428695
    C      0.06504800      1.01767026     -0.66428695
    H      0.96012693      0.79903328      1.23207391
    H      0.96012693      0.79903328     -1.23207391
    H     -0.82808594      1.24628824      1.23299591
    H     -0.82808594      1.24628824     -1.23299591
$end
   
$rem
mem_static = 200
mem_total  = 7500
exchange = b3lyp
basis = G3Large
max_scf_cycles = 50
scf_convergence = 7
symmetry = false
xc_grid = 000075000302
$end
