$molecule
0    1
    O     -0.60155796     -1.62590099      0.00000000
    O      0.07160799     -1.06094503      1.09010392
    O      0.07160799     -1.06094503     -1.09010392
    C      0.07160799      0.31805387      0.77064194
    C      0.07160799      0.31805387     -0.77064194
    H     -0.81519294      0.81543283      1.16766092
    H     -0.81519294      0.81543283     -1.16766092
    H      0.97275593      0.74040883      1.20938591
    H      0.97275593      0.74040883     -1.20938591
$end
   
$rem
mem_static = 200
mem_total  = 7500
exchange = b3lyp
basis = G3Large
max_scf_cycles = 50
scf_convergence = 7
symmetry = false
xc_grid = 000075000302
$end
