$molecule
0    1
    O      0.53042539     -1.88948158      0.00000000
    C     -0.08700157      1.34461119      0.60009796
    C     -0.08700157      1.34461119     -0.60009796
    H     -0.09120956      1.34866019     -1.66473288
    H     -0.09120956      1.34866019      1.66473288
    O     -0.08700157     -1.74853059      1.05955492
    O     -0.08700157     -1.74853059     -1.05955492
$end
   
$rem
mem_static = 200
mem_total  = 7500
exchange = b3lyp
basis = G3Large
max_scf_cycles = 50
scf_convergence = 7
symmetry = false
xc_grid = 000075000302
$end
