#p b3lyp 6-311+g(3df,2p) scf=tight nosymm

BCl3

0    1
    B      0.00000000      0.00000000      0.00000000
   Cl     -0.87465457      1.51494616      0.00000000
   Cl     -0.87465457     -1.51494616      0.00000000
   Cl      1.74930915      0.00000000      0.00000000
 
 
 
