#p b3lyp 6-311+g(3df,2p) scf=tight nosymm

BF3

0    1
    B      0.00000000      0.00000000      0.00000000
    F      0.65836705     -1.14032517      0.00000000
    F      0.65836705      1.14032517      0.00000000
    F     -1.31673409      0.00000000      0.00000000
 
 
 
