#p b3lyp 6-311+g(3df,2p) scf=tight nosymm

bh3

0    1
    B      0.00000000      0.00000000      0.00000000
    H      0.59635668     -1.03292006      0.00000000
    H      0.59635668      1.03292006      0.00000000
    H     -1.19271335      0.00000000      0.00000000
 
 
 
