#p b3lyp 6-311+g(3df,2p) scf=tight nosymm

BH3

0    1
    B      0.00000000      0.00000000      0.00000000
    H      0.59457444     -1.02983314      0.00000000
    H      0.59457444      1.02983314      0.00000000
    H     -1.18914889      0.00000000      0.00000000
 
 
 
