#p b3lyp 6-311+g(3df,2p) scf=tight nosymm

BH3PH3

0    1
    B      0.00000000      0.00000000     -1.12038187
    P      0.00000000      0.00000000      0.83830849
    H     -0.62359560     -1.08009927      1.50139031
    H     -0.62359560      1.08009927      1.50139031
    H      1.24719120      0.00000000      1.50139031
    H      0.58654848      1.01593177     -1.40736585
    H     -1.17309696      0.00000000     -1.40736585
    H      0.58654848     -1.01593177     -1.40736585
 
 
 
