#p b3lyp 6-311+g(3df,2p) scf=tight nosymm

bz

0    1
    N      0.70194971      1.21581256      0.00000000
    B      1.44486044      0.00000000      0.00000000
    N      0.70194971     -1.21581256      0.00000000
    B     -0.72243022     -1.25128584      0.00000000
    N     -1.40389941      0.00000000      0.00000000
    B     -0.72243022      1.25128584      0.00000000
    H      1.20452196      2.08629323      0.00000000
    H      2.64131813      0.00000000      0.00000000
    H      1.20452196     -2.08629323      0.00000000
    H     -1.32065907     -2.28744860      0.00000000
    H     -2.40904392      0.00000000      0.00000000
    H     -1.32065907      2.28744860      0.00000000
 
 
 
