#p b3lyp 6-311+g(3df,2p) scf=tight nosymm

K_F

0    1
    P     -0.56720272     -0.04220113      0.16385889
    B      2.72667883      0.00506293      0.40409333
    C     -0.88433117      1.71098939     -0.08719897
    C     -0.17988004     -0.87824054     -1.37411268
    C     -2.06240357     -0.79275636      0.85760039
    H     -1.71045175      1.83690434     -0.78932281
    H     -1.14651915      2.17149448      0.86648537
    H      0.02639839      2.16340384     -0.47572647
    H     -2.89680584     -0.68163462      0.16329624
    H     -1.88465775     -1.85433844      1.03573696
    H     -2.31558748     -0.31129978      1.80322722
    H     -1.05071946     -0.83649984     -2.03169151
    H      0.08931194     -1.90990859     -1.15036915
    H      0.68583581     -0.38956569     -1.81497401
    F      1.95567322      0.93335703     -0.42857911
    F      2.28364727     -1.30290411      0.02332610
    F      4.07036936      0.16720679      0.14274863
    H      0.44054161     -0.20462532      1.11064379
    H      2.42010250      0.21555562      1.58095780
 
 
 
