#p b3lyp 6-311+g(3df,2p) scf=tight nosymm

nh-bh

0    1
    N      0.00000000      0.00000000      0.66135371
    H      0.00000000      0.00000000      1.65236191
    B      0.00000000      0.00000000     -0.57141002
    H      0.00000000      0.00000000     -1.74230559
 
 
 
