#p b3lyp 6-311+g(3df,2p) scf=tight nosymm

nh2-bh2

0    1
    N      0.00000000      0.00000000      0.70207198
    B      0.00000000      0.00000000     -0.68284157
    H     -0.84059309      0.00000000      1.25298885
    H      0.84059309      0.00000000      1.25298885
    H     -1.04634480      0.00000000     -1.26260405
    H      1.04634480      0.00000000     -1.26260405
 
 
 
