#p b3lyp 6-311+g(3df,2p) scf=tight nosymm

nh3-bh3

0    1
    N      0.00000000      0.00000000     -0.80275694
    B      0.00000000      0.00000000      0.83492975
    H      0.47331758      0.81981009     -1.16551928
    H      0.47331758     -0.81981009     -1.16551928
    H     -0.94663515      0.00000000     -1.16551928
    H      1.16843048      0.00000000      1.15479501
    H     -0.58421524      1.01189048      1.15479501
    H     -0.58421524     -1.01189048      1.15479501
 
 
 
