#p b3lyp 6-311+g(3df,2p) scf=tight nosymm

nh3

0    1
    N      0.00000000      0.00000000      0.28473734
    H      0.46901589      0.81235935     -0.09491245
    H      0.46901589     -0.81235935     -0.09491245
    H     -0.93803178      0.00000000     -0.09491245
 
 
 
