#p b3lyp 6-311+g(3df,2p) scf=tight nosymm

PH3

0    1
    P      0.00000000      0.00000000     -0.57576950
    H      0.59669292     -1.03350245      0.19192317
    H      0.59669292      1.03350245      0.19192317
    H     -1.19338583      0.00000000      0.19192317
 
 
 
