$molecule
0    2
C
H1,  C,  R1
H2,  C,  R2,  H1,  A1
H3,  C,  R2,  H1,  A1,    H2,  120.0
H4,  C,  R2,  H1,  A1,    H2, -120.0
H5,  H1, R3,  C,   180.0, H2,  0.0
 
R1=  2.6253823
R2=  1.0792739
A1= 90.3063461
R3=  0.7446296
$end
   
$rem
mem_static = 200
mem_total  = 7500
exchange = b3lyp
basis = 6-311+g(3df,2p)
scf_convergence = 7
symmetry = false
xc_grid = 000075000302
$end
