%nproc=8
%chk=bz2_s.chk
#P TPSSTPSS/6-311+g(3df,2p) scf=tight iop(3/76=0500005000,5/33=1)
extraoverlay

8/10=90/1;9/16=-3/6;
3/5=4,6=6,7=216,11=2,16=1,25=1,30=1,74=203/1,2,3;
5/5=2,6=-2,32=1,33=1,38=5/2;

Estimated CCSD(T)/aug-cc-pVQZ* Level of Theory using Frozen Monomers
(C-C=1.3915, C-H=1.0800), R(center-to-center)=3.9 Angstroms

0 1
C     -0.19367169    -1.37795628    -2.00
H     -0.34398821    -2.44744445    -2.00
C     -1.29018099    -0.52125353    -2.00
H     -2.29154317    -0.92581969    -2.00
C     -1.09650930     0.85670275    -2.00
H     -1.94755496     1.52162475    -2.00
C      0.19367169     1.37795628    -2.00
H      0.34398821     2.44744445    -2.00
C      1.29018099     0.52125353    -2.00
H      2.29154317     0.92581969    -2.00
C      1.09650930    -0.85670275    -2.00
H      1.94755496    -1.52162475    -2.00
C      1.29018099     0.52125353     2.00
H      2.29154317     0.92581969     2.00
C      0.19367169     1.37795628     2.00
H      0.34398821     2.44744445     2.00
C     -1.09650930     0.85670275     2.00
H     -1.94755496     1.52162475     2.00
C     -1.29018099    -0.52125353     2.00
H     -2.29154317    -0.92581969     2.00
C     -0.19367169    -1.37795628     2.00
H     -0.34398821    -2.44744445     2.00
C      1.09650930    -0.85670275     2.00
H      1.94755496    -1.52162475     2.00

r  2.00
 


