$molecule
0 2
      H               -.303286   -1.930712     .000000
      O               -.861006    -.621526     .000000
      N                .000000     .257027     .000000
      N               1.027333     .729104     .000000
$end
   
$rem
mem_static = 200
mem_total  = 7500
exchange = b3lyp
basis = 6-311+g(3df,2p)
scf_convergence = 7
symmetry = false
xc_grid = 000075000302
$end
