$molecule
0  2
     Cl                 1.454749   -0.001237   -0.000040
      F                -0.323587    0.004631    0.000124
      C                -2.387418   -0.002147   -0.000073
      H                -2.495086   -0.855361   -0.649404
      H                -2.497313   -0.138673    1.063139
      H                -2.501537    0.986269   -0.413734
$end
   
$rem
mem_static = 200
mem_total  = 7500
exchange = b3lyp
basis = 6-311+g(3df,2p)
scf_convergence = 7
symmetry = false
xc_grid = 000075000302
$end
