$molecule
0 2
      H                 0.000000    0.000000    1.137217
      F                 0.000000    0.000000    0.000000
      H                 0.000000    0.000000   -1.137217
$end
   
$rem
mem_static = 200
mem_total  = 7500
exchange = b3lyp
basis = 6-311+g(3df,2p)
scf_convergence = 7
symmetry = false
xc_grid = 000075000302
$end
