$molecule
0  2
      H               -1.520864    1.388829     .000000
      C                 .108633     .549329     .000000
      O                 .108633    -.585601     .000000
$end
   
$rem
mem_static = 200
mem_total  = 7500
exchange = b3lyp
basis = 6-311+g(3df,2p)
scf_convergence = 7
symmetry = false
xc_grid = 000075000302
$end
