$molecule
0   2
      C               -0.567877    0.000051   -0.218958
      C                0.751139   -0.000036    0.041932
      H               -1.493884   -0.000488    1.531765
      H               -1.101691    0.920651   -0.408626
      H               -1.102022   -0.920234   -0.409110
      H                1.299128   -0.922344    0.173763
      H                1.298899    0.922325    0.174363
$end
   
$rem
mem_static = 200
mem_total  = 7500
exchange = b3lyp
basis = 6-311+g(3df,2p)
scf_convergence = 7
symmetry = false
xc_grid = 000075000302
$end
