$molecule
0  2 
      C         -0.472132    0.645933   -0.000043
      C         -1.382617   -0.363885   -0.000002
      H         -0.232044    1.164575   -0.917264
      H         -0.232342    1.164759    0.917169
      H         -1.727128   -0.809810    0.922519
      H         -1.726936   -0.810131   -0.922435
      C          1.612015   -0.242189    0.000035
      H          2.195182    0.668671   -0.001269
      H          1.589423   -0.809619   -0.918632
      H          1.590245   -0.807598    0.919969
$end
   
$rem
mem_static = 200
mem_total  = 7500
exchange = b3lyp
basis = 6-311+g(3df,2p)
scf_convergence = 7
symmetry = false
xc_grid = 000075000302
$end
