$molecule
0  1 
      C               .080319     .620258     .000000
      N               .080319    -.568095     .000000
      H             -1.044148     .255121     .000000
$end
   
$rem
mem_static = 200
mem_total  = 7500
exchange = b3lyp
basis = 6-311+g(3df,2p)
scf_convergence = 7
symmetry = false
xc_grid = 000075000302
$end
