$molecule
-1 1
      F                .003098    -.018892    -.015456
      C               -.000149    -.000140    1.807857
      H               1.069449     .001708    1.809761
      H               -.536607     .925133    1.796935
      H               -.532601    -.927783    1.817058
      F               -.003191     .019974    3.631845
$end
   
$rem
mem_static = 200
mem_total  = 7500
exchange = b3lyp
basis = 6-311+g(3df,2p)
scf_convergence = 7
symmetry = false
xc_grid = 000075000302
$end
