$molecule
-1 1
     Cl                 2.322581    -.000132     .000140
      C                 -.000085     .000491    -.000509
      H                  .000077    -.744290    -.767605
      H                 -.000320    -.291443    1.028021
      H                  .000081    1.037218    -.261959
     Cl                -2.322542    -.000129     .000130
$end
   
$rem
mem_static = 200
mem_total  = 7500
exchange = b3lyp
basis = 6-311+g(3df,2p)
scf_convergence = 7
symmetry = false
xc_grid = 000075000302
$end
