$molecule
-1 1
      F                  .000000     .000000   -2.537929
      C                  .000000     .000000    -.488372
      H                  .000000    1.062087    -.614972
      H                 -.919795    -.531044    -.614972
      H                  .919795    -.531044    -.614972
     Cl                  .000000     .000000    1.624501
$end
   
$rem
mem_static = 200
mem_total  = 7500
exchange = b3lyp
basis = 6-311+g(3df,2p)
scf_convergence = 7
symmetry = false
xc_grid = 000075000302
$end
