$molecule
-1 1
      F                  .022536    -.007453     .005529
      C                 -.018420     .005037    1.764925
      H                 1.048050     .005240    1.854146
      H                 -.547819     .934707    1.792224
      H                 -.548955    -.923433    1.805762
      O                  .001265     .019200    3.750599
      H                 -.926763     .031615    3.997581
$end
   
$rem
mem_static = 200
mem_total  = 7500
exchange = b3lyp
basis = 6-311+g(3df,2p)
scf_convergence = 7
symmetry = false
xc_grid = 000075000302
$end
