$molecule
0  1 
      N               0.000000    0.000000    0.115013
      H               0.000000    0.939752   -0.268364
      H               0.813850   -0.469876   -0.268364
      H              -0.813850   -0.469876   -0.268364
$end
   
$rem
mem_static = 200
mem_total  = 7500
exchange = b3lyp
basis = 6-311+g(3df,2p)
scf_convergence = 7
symmetry = false
xc_grid = 000075000302
$end
