$molecule
0   1
      N              1.575225    0.000085   -0.042607
      H              2.131108    0.813949   -0.286614
      H              1.496450   -0.002936    0.970257
      H              2.131721   -0.811892   -0.291453
      N             -1.688245    0.000083    0.104848
      H             -2.126403   -0.812680   -0.317310
      H             -2.127442    0.811842   -0.318158
      H             -0.714297    0.000543   -0.192407
$end
   
$rem
mem_static = 200
mem_total  = 7500
exchange = b3lyp
basis = 6-311+g(3df,2p)
scf_convergence = 7
symmetry = false
xc_grid = 000075000302
$end
