$molecule
0   1
      N                 0.000000    0.000000   -2.057899
      H                 0.000000    0.949605   -2.414488
      H                 0.822382   -0.474803   -2.414488
      H                -0.822382   -0.474803   -2.414488
     Cl                 0.000000    0.000000    0.243855
      F                 0.000000    0.000000    1.944803
$end
   
$rem
mem_static = 200
mem_total  = 7500
exchange = b3lyp
basis = 6-311+g(3df,2p)
scf_convergence = 7
symmetry = false
xc_grid = 000075000302
$end
