$molecule
0  1 
      C                 -.160685     .388399    -.000538
      O                -1.195705    -.246392     .000189
      N                 1.083300    -.158419    -.000291
      H                 -.139918    1.490350     .001393
      H                 1.182258   -1.160415     .001116
      H                 1.904316     .419735     .001245
$end
   
$rem
mem_static = 200
mem_total  = 7500
exchange = b3lyp
basis = 6-311+g(3df,2p)
scf_convergence = 7
symmetry = false
xc_grid = 000075000302
$end
