$molecule
0   1
      C                 -0.000000    0.000000    1.807279
      H                 -0.000000    1.026643    1.442400
      H                 -0.889099   -0.513322    1.442400
      H                 -0.000000    0.000000    2.896843
      H                  0.889099   -0.513322    1.442400
      C                 -0.000000   -0.000000   -1.807279
      H                  0.889099    0.513322   -1.442400
      H                 -0.000000   -0.000000   -2.896843
      H                 -0.889099    0.513322   -1.442400
      H                 -0.000000   -1.026643   -1.442400
$end
   
$rem
mem_static = 200
mem_total  = 7500
exchange = b3lyp
basis = 6-311+g(3df,2p)
scf_convergence = 7
symmetry = false
xc_grid = 000075000302
$end
