$molecule
0   1
      C                  1.857768    0.472803    0.472425
      C                  1.857768   -0.472803   -0.472425
      H                  0.933772    0.874688    0.874063
      H                  2.783818    0.871709    0.871556
      H                  2.783818   -0.871709   -0.871556
      H                  0.933772   -0.874688   -0.874063
      C                 -1.857768    0.472803   -0.472425
      C                 -1.857768   -0.472803    0.472425
      H                 -2.783818    0.871709   -0.871556
      H                 -0.933772    0.874688   -0.874063
      H                 -0.933772   -0.874688    0.874063
      H                 -2.783818   -0.871709    0.871556
$end
   
$rem
mem_static = 200
mem_total  = 7500
exchange = b3lyp
basis = 6-311+g(3df,2p)
scf_convergence = 7
symmetry = false
xc_grid = 000075000302
$end
