$molecule
0   1
C      0.000000000000     1.950000000000     1.391500000000
H      0.000000000000     1.950000000000     2.471500000000
C      1.205074349366     1.950000000000     0.695750000000
H      2.140381785453     1.950000000000     1.235750000000
C      1.205074349366     1.950000000000    -0.695750000000
H      2.140381785453     1.950000000000    -1.235750000000
C     -0.000000000000     1.950000000000    -1.391500000000
H     -0.000000000000     1.950000000000    -2.471500000000
C     -1.205074349366     1.950000000000    -0.695750000000
H     -2.140381785453     1.950000000000    -1.235750000000
C     -1.205074349366     1.950000000000     0.695750000000
H     -2.140381785453     1.950000000000     1.235750000000
C     -1.205074349366    -1.950000000000    -0.695750000000
H     -2.140381785453    -1.950000000000    -1.235750000000
C     -0.000000000000    -1.950000000000    -1.391500000000
H     -0.000000000000    -1.950000000000    -2.471500000000
C      1.205074349366    -1.950000000000    -0.695750000000
H      2.140381785453    -1.950000000000    -1.235750000000
C      1.205074349366    -1.950000000000     0.695750000000
H      2.140381785453    -1.950000000000     1.235750000000
C     -0.000000000000    -1.950000000000     1.391500000000
H     -0.000000000000    -1.950000000000     2.471500000000
C     -1.205074349366    -1.950000000000     0.695750000000
H     -2.140381785453    -1.950000000000     1.235750000000
$end
   
$rem
mem_static = 200
mem_total  = 7500
exchange = b3lyp
basis = 6-311+g(3df,2p)
scf_convergence = 7
symmetry = false
xc_grid = 000075000302
$end
