$molecule
0    1
    C      0.00000000      0.00000000     -1.12416991
    C      0.00000000      1.17942675     -0.18959510
    C      0.00000000     -1.17942675     -0.18959510
    C      0.00000000      0.73434647      1.08066230
    C      0.00000000     -0.73434647      1.08066230
    H      0.87715873      0.00000000     -1.78568415
    H     -0.87715873      0.00000000     -1.78568415
    H      0.00000000      2.21027959     -0.51635497
    H      0.00000000     -2.21027959     -0.51635497
    H      0.00000000      1.34728613      1.97305687
    H      0.00000000     -1.34728613      1.97305687
$end
   
$rem
mem_static = 200
mem_total  = 7500
exchange = b3lyp
basis = G3Large
max_scf_cycles = 50
scf_convergence = 7
symmetry = false
xc_grid = 000075000302
$end
