$molecule
0    1
    N      0.00000000      0.00000000      1.14271612
    C     -1.12415732      0.00000000      0.35290190
    C      1.12415732      0.00000000      0.35290190
    C     -0.71189720      0.00000000     -0.96006647
    C      0.71189720      0.00000000     -0.96006647
    H      0.00000000      0.00000000      2.14833641
    H     -2.11145460      0.00000000      0.78525802
    H      2.11145460      0.00000000      0.78525802
    H     -1.35853839      0.00000000     -1.82361972
    H      1.35853839      0.00000000     -1.82361972
$end
   
$rem
mem_static = 200
mem_total  = 7500
exchange = b3lyp
basis = G3Large
max_scf_cycles = 50
scf_convergence = 7
symmetry = false
xc_grid = 000075000302
$end
