$molecule
0    1
    H     -1.96835543      1.06706730      1.34307138
    C     -1.11416519      1.01457429      0.68421719
    C      0.22922219      0.72932521      1.09945031
    C     -1.11416519      1.01457429     -0.68421719
    H      1.98243669      0.70630020      0.00000000
    N      1.03477842      1.05782430      0.00000000
    C      0.22922219     -1.33411138      0.70659720
    H      0.61593330      0.86963625      2.10018760
    C      0.22922219     -1.33411138     -0.70659720
    H     -1.96835543      1.06706730     -1.34307138
    C      0.22922219      0.72932521     -1.09945031
    H      0.61593330      0.86963625     -2.10018760
    H      1.15484245     -1.56502644     -1.22577535
    H     -0.65530706     -1.66352747      1.23801535
    H      1.15484245     -1.56502644      1.22577535
    H     -0.65530706     -1.66352747     -1.23801535
$end
   
$rem
mem_static = 200
mem_total  = 7500
exchange = b3lyp
basis = G3Large
max_scf_cycles = 50
scf_convergence = 7
symmetry = false
xc_grid = 000075000302
$end
