$molecule
0    1
    H     -1.20945809      1.86172553      1.29003837
    C     -0.45440788      1.35504138      0.69809420
    C      0.48269239      0.47260913      1.24701335
    C     -0.45440788      1.35504138     -0.69809420
    H      2.36299592      1.39459740      0.00000000
    P      1.78720176      0.08011502      0.00000000
    C     -0.45440788     -1.47386842      0.69782320
    H      0.66001744      0.39345611      2.31291466
    C     -0.45440788     -1.47386842     -0.69782320
    H     -1.20945809      1.86172553     -1.29003837
    C      0.48269239      0.47260913     -1.24701335
    H      0.66001744      0.39345611     -2.31291466
    H      0.26801933     -2.07939859     -1.23145835
    H     -1.36755414     -1.26692136      1.23885935
    H      0.26801933     -2.07939859      1.23145835
    H     -1.36755414     -1.26692136     -1.23885935
$end
   
$rem
mem_static = 200
mem_total  = 7500
exchange = b3lyp
basis = G3Large
max_scf_cycles = 50
scf_convergence = 7
symmetry = false
xc_grid = 000075000302
$end
