$molecule
0    1
    C      0.96745818     -0.11636708      0.00000000
    N     -0.30997203     -0.08985969      0.00000000
    C     -1.52110719     -0.22012411      0.00000000
    H      1.50098101     -0.12812485      0.94177693
    H      1.50098101     -0.12812485     -0.94177693
    H     -2.13834099      0.68260057      0.00000000
$end
   
$rem
mem_static = 200
mem_total  = 7500
exchange = b3lyp
basis = G3Large
max_scf_cycles = 50
scf_convergence = 7
symmetry = false
xc_grid = 000075000302
$end
