$molecule
0    1
    N      0.00000000      0.00000000      1.88832497
    N      0.00000000      0.00000000      0.75165548
    C      0.00000000      0.00000000     -0.54332277
    H      0.95203693      0.00000000     -1.04832884
    H     -0.95203693      0.00000000     -1.04832884
$end
   
$rem
mem_static = 200
mem_total  = 7500
exchange = b3lyp
basis = G3Large
max_scf_cycles = 50
scf_convergence = 7
symmetry = false
xc_grid = 000075000302
$end
