$molecule
0    1
    C      0.85850825      0.85149915     -0.05406558
    C      0.85665788     -0.53234839     -0.02148388
    N     -1.21895555     -0.93022550     -0.12349725
    N     -1.66704563      0.25593412     -0.01212111
    N     -1.21073857      1.33091410     -0.05063027
    H      1.03972903      1.42014731      0.84839241
    H      1.04072504      1.37132644     -0.98626816
    H      1.02509066     -1.05697868      0.91129076
    H      1.04207235     -1.10394172     -0.92050179
    H     -1.76604346     -1.60632684      0.40888487
$end
   
$rem
mem_static = 200
mem_total  = 7500
exchange = b3lyp
basis = G3Large
max_scf_cycles = 50
scf_convergence = 7
symmetry = false
xc_grid = 000075000302
$end
