$molecule
0    1
    C      0.64643888      0.66204757      0.00000000
    C      0.62059163     -0.72735286      0.00000000
    O     -1.43762007     -1.04803431      0.00000000
    N     -1.81431279      0.12667381      0.00000000
    N     -1.28271594      1.17289408      0.00000000
    H      0.87969094      1.19136231      0.91554303
    H      0.87969094      1.19136231     -0.91554303
    H      0.75411821     -1.28447645      0.91762986
    H      0.75411821     -1.28447645     -0.91762986
$end
   
$rem
mem_static = 200
mem_total  = 7500
exchange = b3lyp
basis = G3Large
max_scf_cycles = 50
scf_convergence = 7
symmetry = false
xc_grid = 000075000302
$end
