$molecule
0    1
    H     -1.88093653      0.87881625      0.00009800
    C     -1.21820935      0.00014400     -0.00000300
    C     -0.28325908      0.00005800     -1.18134933
    C      0.99310328     -0.00030000     -0.73469221
    C      0.99309928      0.00040000      0.73469621
    C     -0.28326408     -0.00037500      1.18134833
    H     -1.88141753     -0.87814225     -0.00010700
    H     -0.61008117     -0.00060400      2.21454163
    H     -0.61007117      0.00011900     -2.21454463
    H      1.88684653     -0.00039500     -1.34934538
    H      1.88683453      0.00064300      1.34935838
$end
   
$rem
mem_static = 200
mem_total  = 7500
exchange = b3lyp
basis = G3Large
max_scf_cycles = 50
scf_convergence = 7
symmetry = false
xc_grid = 000075000302
$end
