$molecule
0    1
    C     -0.31888409      0.00006600      2.89452182
    H      0.64133518      0.00017900      3.40596397
    H     -1.20504534      0.00007000      3.52183200
    C     -0.40082311     -0.00006200      1.55391444
    H     -1.38655839     -0.00013600      1.09227631
    C      0.75754221     -0.00006400      0.67768719
    H      1.72326249      0.00004400      1.18240334
    C      0.75754221     -0.00003700     -0.67768719
    H      1.72326249      0.00008400     -1.18240334
    C     -0.40082311      0.00000200     -1.55391444
    H     -1.38655839     -0.00005000     -1.09227631
    C     -0.31888409      0.00004600     -2.89452182
    H      0.64133518      0.00008100     -3.40596397
    H     -1.20504534      0.00002400     -3.52183200
$end
   
$rem
mem_static = 200
mem_total  = 7500
exchange = b3lyp
basis = G3Large
max_scf_cycles = 50
scf_convergence = 7
symmetry = false
xc_grid = 000075000302
$end
