$molecule
0    1
    H      0.00000000      0.00000000      0.00000000
    C      0.00000000      0.00000000      1.08752231
    C      1.21174634      0.00000000      4.33334123
    C     -0.06518702      1.36351639      1.73203749
    H      1.99464457      0.97829728      1.04495730
    H     -0.60808917      1.47213742      2.66665076
    H     -0.14988904      2.23069563      1.08186031
    C      1.24252435      0.60941017      1.73845849
    C      1.84347452     -0.03228801      2.96268284
    H      0.00742900     -2.98067684      2.90203182
    C     -0.01377300     -1.89341154      2.91248083
    H      1.86953153      0.07434802      5.19572047
    C     -1.39016839     -1.27613936      2.97024684
    H     -0.97147628     -1.93539655      0.90785626
    H     -1.52230043     -0.34917410      3.52099100
    H     -2.24529464     -1.94381655      3.04003886
    C     -0.62356218     -1.24227535      1.67024847
    H      2.93089183     -0.02143401      2.95223384
    H      0.27297108      0.53133715      4.46150026
    C      1.21073934     -1.29283437      3.55398001
    H      1.91515254     -2.04501158      3.90145311
$end
   
$rem
mem_static = 200
mem_total  = 7500
exchange = b3lyp
basis = G3Large
max_scf_cycles = 50
scf_convergence = 7
symmetry = false
xc_grid = 000075000302
$end
