$molecule
0    1
    H     -0.14488304      1.24400035      2.79078779
    C     -0.07937002      0.72142920      1.84022952
    C     -0.12869304      1.40898540      0.67748219
    C      0.07937002     -0.72142920      1.84022952
    C      0.12869304     -1.40898540      0.67748219
    H      0.14488304     -1.24400035      2.79078779
    H     -0.22121806      2.49234571      0.67750819
    C     -0.00672700      0.74846721     -0.62134418
    C      0.00672700     -0.74846721     -0.62134418
    H      0.22121806     -2.49234571      0.67750819
    C      0.12869304      1.49744742     -1.73950949
    C     -0.12869304     -1.49744742     -1.73950949
    H      0.08954603      2.58173073     -1.68901048
    H      0.29445708      1.06448030     -2.72042777
    H     -0.29445708     -1.06448030     -2.72042777
    H     -0.08954603     -2.58173073     -1.68901048
$end
   
$rem
mem_static = 200
mem_total  = 7500
exchange = b3lyp
basis = G3Large
max_scf_cycles = 50
scf_convergence = 7
symmetry = false
xc_grid = 000075000302
$end
