$molecule
0    1
    C      1.80470751     -0.75747821     -1.12979732
    C      2.52303672     -0.42264412      0.18162605
    H      2.61494374     -1.25437936      0.88948725
    H      3.53561100     -0.04337901      0.00000000
    H      1.07318330     -1.55818044     -0.97347028
    H      2.44359969     -1.06352830     -1.97095956
    C      1.09730131      0.58097316     -1.31866437
    C      1.62969946      0.73320321      0.66919919
    H      2.10159660      1.71439249      0.67449219
    C      0.59334617      0.58097316      1.60962246
    H      1.76655550      1.40075040     -1.57498345
    C     -0.23530607      0.73320321     -1.74596049
    C     -1.10422531     -0.42264412     -2.27582665
    C     -1.88078753     -0.75747821     -0.99802328
    H     -0.53715315     -1.25437936     -2.70935177
    H     -0.46667013      1.71439249     -2.15728161
    H     -1.76780550     -0.04337901     -3.06192887
    H     -1.37964139     -1.55818044     -0.44266913
    H     -2.92870083     -1.06352830     -1.13074032
    C     -1.69064748      0.58097316     -0.29095908
    C     -1.39439240      0.73320321      1.07676131
    H     -2.24725364      1.40075040     -0.74239021
    H     -1.63492546      1.71439249      1.48278942
    C     -1.41881040     -0.42264412      2.09420059
    H     -2.07779059     -1.25437936      1.81986452
    C      0.07608002     -0.75747821      2.12782160
    H      0.48510114     -1.06352830      3.10169888
    H      0.48069814      1.40075040      2.31737366
    H      0.30645809     -1.55818044      1.41613940
    H     -1.76780550     -0.04337901      3.06192887
$end
   
$rem
mem_static = 200
mem_total  = 7500
exchange = b3lyp
basis = G3Large
max_scf_cycles = 50
scf_convergence = 7
symmetry = false
xc_grid = 000075000302
$end
