$molecule
0    1
    C     -0.10608303     -1.20371634      1.14065332
    C      0.18873405      0.11984303      1.48248942
    C     -0.10608303      1.24231935      0.70296420
    C     -0.10608303      1.24231935     -0.70296420
    C      0.18873405      0.11984303     -1.48248942
    C     -0.10608303     -1.20371634     -1.14065332
    H      0.84128024      0.29627608      2.34048866
    H     -0.01657900      2.22000063      1.17510633
    H     -0.01657900      2.22000063     -1.17510633
    H      0.84128024      0.29627608     -2.34048866
    H      0.44705013     -1.99920457     -1.64114747
    H     -1.13115532     -1.46774942     -0.93625527
    H      0.44705013     -1.99920457      1.64114747
    H     -1.13115532     -1.46774942      0.93625527
$end
   
$rem
mem_static = 200
mem_total  = 7500
exchange = b3lyp
basis = G3Large
max_scf_cycles = 50
scf_convergence = 7
symmetry = false
xc_grid = 000075000302
$end
