$molecule
0    1
    H      0.69613820      2.50856571      0.26471008
    C      0.68771519      1.42547640      0.16840005
    C      0.68770919     -1.42547740     -0.16839905
    C     -0.51600015      0.70943720     -0.01417800
    C      1.86714253      0.70242820      0.10577303
    C      1.86713853     -0.70243420     -0.10577503
    C     -0.51600215     -0.70943420      0.01418800
    C     -1.85513853      1.10504731     -0.30270509
    H      2.82025080      1.21991335      0.17946105
    H      2.82024580     -1.21992235     -0.17947305
    H     -2.32346466     -0.71459620      1.19642434
    H      0.69612820     -2.50856571     -0.26471408
    H     -2.32346066      0.71458420     -1.19642134
    H     -2.29517965      2.03107758      0.07544602
    H     -2.29518565     -2.03106658     -0.07546502
    C     -1.85514353     -1.10504231      0.30270109
$end
   
$rem
mem_static = 200
mem_total  = 7500
exchange = b3lyp
basis = G3Large
max_scf_cycles = 50
scf_convergence = 7
symmetry = false
xc_grid = 000075000302
$end
