$molecule
0    1
    C     -0.04040001     -0.93763727      0.74510221
    C     -0.04040001     -0.93763727     -0.74510221
    C     -0.01877201      0.41262612      1.14927033
    C     -0.01877201      0.41262612     -1.14927033
    C     -0.00867000      1.21546434      0.00000000
    H      1.01796329     -1.16878833      0.00000000
    H     -0.19175105     -1.82105252      1.35355838
    H     -0.19175105     -1.82105252     -1.35355838
    H      0.03233501      0.75606121      2.17492762
    H      0.03233501      0.75606121     -2.17492762
    H      0.06284402      2.29817465      0.00000000
$end
   
$rem
mem_static = 200
mem_total  = 7500
exchange = b3lyp
basis = G3Large
max_scf_cycles = 50
scf_convergence = 7
symmetry = false
xc_grid = 000075000302
$end
