$molecule
0    1
    C      0.49925314     -0.43658412      1.43729141
    C      0.49925314     -0.43658412     -1.43729141
    C     -0.26132907     -1.32880438      0.70359020
    C     -0.26132907     -1.32880438     -0.70359020
    C     -0.26132907      1.57183445      0.69299920
    C     -0.26132907      1.57183445     -0.69299920
    H      0.38755411     -0.38651911      2.51767671
    H      1.45989141     -0.09539303      1.06867430
    H      0.38755411     -0.38651911     -2.51767671
    H      1.45989141     -0.09539303     -1.06867430
    H     -1.04073330     -1.89346954      1.21328934
    H     -1.04073330     -1.89346954     -1.21328934
    H      0.52534815      2.08805059      1.23581335
    H     -1.19162434      1.44865141      1.23591735
    H      0.52534815      2.08805059     -1.23581335
    H     -1.19162434      1.44865141     -1.23591735
$end
   
$rem
mem_static = 200
mem_total  = 7500
exchange = b3lyp
basis = G3Large
max_scf_cycles = 50
scf_convergence = 7
symmetry = false
xc_grid = 000075000302
$end
