$molecule
0    1
    H      2.07694459     -1.13787532      1.18158933
    C      1.48650242     -0.36066710      0.70718420
    C     -1.85868053      0.68571219      0.00000000
    C      0.92934026      0.68571219      1.60966446
    H     -0.01518600     -1.13787532      2.38948168
    H      0.65814419      1.63186746      1.13993932
    H      1.46824642      0.85760924      2.54307772
    C     -0.13081204     -0.36066710      1.64094147
    C     -1.35569038     -0.36066710      0.93375626
    H     -0.01518600     -1.13787532     -2.38948168
    C     -0.13081204     -0.36066710     -1.64094147
    H     -2.93649283      0.85760924      0.00000000
    C      0.92934026      0.68571219     -1.60966446
    H      2.07694459     -1.13787532     -1.18158933
    H      0.65814419      1.63186746     -1.13993932
    H      1.46824642      0.85760924     -2.54307772
    C      1.48650242     -0.36066710     -0.70718420
    H     -2.06175858     -1.13787532      1.20789234
    H     -1.31628837      1.63186746      0.00000000
    C     -1.35569038     -0.36066710     -0.93375626
    H     -2.06175858     -1.13787532     -1.20789234
$end
   
$rem
mem_static = 200
mem_total  = 7500
exchange = b3lyp
basis = G3Large
max_scf_cycles = 50
scf_convergence = 7
symmetry = false
xc_grid = 000075000302
$end
