%nproc=4
%mem=1000mb
#P B3LYP/6-311++G(3df,2p) scf=tight nosymm

Ne-Ar at equlibium r=3.4889 Anstron with dE=-0.13431 kcal/mol

0 1
Ar
Ne 1 3.4889


