%nproc=4
%mem=1000mb
#P B3LYP/6-311++G(3df,2p) scf=tight nosymm

Ne-Ar at r=4.4 Anstron

0 1
Ar
Ne 1 4.4


