%nproc=4
%mem=1000mb
#P B3LYP/6-311++G(3df,2p) scf=tight nosymm

He-Ne at r=3.6 Anstron

0 1
Ne
He 1 3.6


