%nproc=4
%mem=1000mb
#P B3LYP/6-311++G(3df,2p) scf=tight nosymm

He-Ne at equlibium r=3.0309 Anstron with dE=-0.04113 kcal/mol

0 1
Ne
He 1 3.0309


