#p b3lyp/6-311+G(3df.2p) scf=tight

Be

0 1
Be 0.0 0.0 0.0

