#p b3lyp/6-311+G(3df.2p) scf=tight

Be2_2.65

0 1
Be 0.0 0.0 0.0
Be 0.0 0.0 2.65

