#p b3lyp/6-311+G(3df.2p) scf=tight

Be2_4.8

0 1
Be 0.0 0.0 0.0
Be 0.0 0.0 4.8

