$molecule
0    1
    O     -1.92343043      0.00000000     -1.00571357
    H     -1.87302118     -0.45430696     -1.84953321
    H     -2.62857391     -0.45466058     -0.53983715
$end
   
$rem
mem_static = 200
mem_total  = 7500
exchange = b3lyp
basis = G3Large
max_scf_cycles = 50
scf_convergence = 7
symmetry = false
xc_grid = 000075000302
$end
