$molecule
0    1
    O      0.05269114      0.00000000      0.00000000
    H      0.75825575     -0.45430696      0.46556552
    H      0.00180206     -0.45466058     -0.84361038
$end
   
$rem
mem_static = 200
mem_total  = 7500
exchange = b3lyp
basis = G3Large
max_scf_cycles = 50
scf_convergence = 7
symmetry = false
xc_grid = 000075000302
$end
