$molecule
0    1
    O     -1.90351197     -1.00571357      0.00000000
    H     -2.00393616     -1.58828201     -0.75597387
    H     -2.00330888     -1.58832816      0.75603256
$end
   
$rem
mem_static = 200
mem_total  = 7500
exchange = b3lyp
basis = G3Large
max_scf_cycles = 50
scf_convergence = 7
symmetry = false
xc_grid = 000075000302
$end
