$molecule
0    1
    O      0.07610844      0.00000000      0.00000000
    H      0.05432663     -0.37674341      0.88279018
    C      0.95934866     -0.79529268     -0.78683313
    H      0.96585169     -0.36158735     -1.78109894
    H      1.97509100     -0.78008256     -0.39255471
    H      0.61741715     -1.82711046     -0.86436159
$end
   
$rem
mem_static = 200
mem_total  = 7500
exchange = b3lyp
basis = G3Large
max_scf_cycles = 50
scf_convergence = 7
symmetry = false
xc_grid = 000075000302
$end
