$molecule
0    1
    N     -1.90195913      0.00000000     -0.98468068
    H     -2.59271498     -0.52916603     -0.46786884
    H     -1.79214146     -0.48273762     -1.86737546
    C     -2.40262008      1.35715254     -1.22595763
    H     -1.66036156      1.91384389     -1.79277182
    H     -3.35029818      1.40309833     -1.76645550
    H     -2.53006708      1.86330587     -0.27218575
$end
   
$rem
mem_static = 200
mem_total  = 7500
exchange = b3lyp
basis = G3Large
max_scf_cycles = 50
scf_convergence = 7
symmetry = false
xc_grid = 000075000302
$end
