$molecule
0    1
    N      0.05837697      0.00000000      0.00000000
    H      0.08807475     -0.62817432     -0.79295011
    H      0.11686296     -0.59118429      0.81934493
    C      1.21692494      0.89821678     -0.04137851
    H      1.18401446      1.56002946      0.82062624
    H      2.18469885      0.39252588     -0.04713268
    H      1.15259151      1.51981523     -0.93109269
$end
   
$rem
mem_static = 200
mem_total  = 7500
exchange = b3lyp
basis = G3Large
max_scf_cycles = 50
scf_convergence = 7
symmetry = false
xc_grid = 000075000302
$end
