$molecule
0    1
    N      0.05803628      0.00000000      0.00000000
    H      0.74879213     -0.52916603     -0.51681184
    H     -0.05178138     -0.48273762      0.88269478
    C      0.55869724      1.35715254      0.24127695
    H     -0.18356129      1.91384389      0.80809114
    H      1.50637534      1.40309833      0.78177482
    H      0.68614423      1.86330587     -0.71249493
$end
   
$rem
mem_static = 200
mem_total  = 7500
exchange = b3lyp
basis = G3Large
max_scf_cycles = 50
scf_convergence = 7
symmetry = false
xc_grid = 000075000302
$end
