$molecule
0    1
    N      0.32009287      0.00000000      0.00000000
    H      0.87895668     -0.28836813     -0.79295011
    H      0.86131648     -0.24494179      0.81934493
    C      0.12148830      1.45244037     -0.04137851
    H     -0.46811352      1.75484540      0.82062624
    H      1.04331642      2.03771171     -0.04713268
    H     -0.44899845      1.70752520     -0.93109269
$end
   
$rem
mem_static = 200
mem_total  = 7500
exchange = b3lyp
basis = G3Large
max_scf_cycles = 50
scf_convergence = 7
symmetry = false
xc_grid = 000075000302
$end
