$molecule
0    1
    C     -2.58296156      1.01363588     -1.11955249
    H     -3.48326446      1.62259159     -1.09381510
    H     -2.36086910      0.75644199     -2.15405053
    H     -1.73965876      1.57930523     -0.73306242
    C     -2.71639742     -0.26113318     -0.32631580
    O     -1.74309869     -0.94055975      0.00000000
    N     -3.97752578     -0.62680590      0.00000000
    H     -4.74228426     -0.07480945     -0.34169115
    C     -4.24303471     -1.86173771      0.70782511
    H     -3.46070630     -2.01512799      1.44459538
    H     -5.20377587     -1.78816451      1.20847668
    H     -4.25210380     -2.71967016      0.03658396
$end
   
$rem
mem_static = 200
mem_total  = 7500
exchange = b3lyp
basis = G3Large
max_scf_cycles = 50
scf_convergence = 7
symmetry = false
xc_grid = 000075000302
$end
