$molecule
0    1
    C     -2.06322220      2.11231450     -0.15387876
    H     -2.46189513      3.08983707      0.10601414
    H     -2.52527010      1.77853183     -1.08165073
    H     -0.99255806      2.18054712     -0.32574671
    C     -2.31867195      1.07505004      0.90955605
    O     -1.71974034      0.00000000      0.94055975
    N     -3.25970125      1.38893235      1.82965660
    H     -3.76509422      2.24935455      1.72689441
    C     -3.63966156      0.45220450      2.86635282
    H     -2.75095005     -0.07179959      3.20400403
    H     -4.07803352      0.99629134      3.69754963
    H     -4.35357960     -0.28625225      2.50345107
$end
   
$rem
mem_static = 200
mem_total  = 7500
exchange = b3lyp
basis = G3Large
max_scf_cycles = 50
scf_convergence = 7
symmetry = false
xc_grid = 000075000302
$end
