$molecule
0    1
    O      0.42374195      0.00000000      0.00000000
    H      0.86911796     -0.21583479     -0.82269560
    C      0.20871931      1.40454460      0.01360777
    H     -0.29377706      1.63541616      0.94773931
    H      1.14451108      1.96376504     -0.01978407
    H     -0.42899028      1.73171169     -0.80881821
$end
   
$rem
mem_static = 200
mem_total  = 7500
exchange = b3lyp
basis = G3Large
max_scf_cycles = 50
scf_convergence = 7
symmetry = false
xc_grid = 000075000302
$end
