$molecule
0    1
    O     -2.02127683     -1.13128731      0.00000000
    H     -2.05704643     -1.62491165      0.82269560
    C     -3.13013682     -0.24279994     -0.01360777
    H     -3.07882927      0.30781046     -0.94773931
    H     -4.08233181     -0.77360917      0.01978407
    H     -3.09461704      0.47305631      0.80881821
$end
   
$rem
mem_static = 200
mem_total  = 7500
exchange = b3lyp
basis = G3Large
max_scf_cycles = 50
scf_convergence = 7
symmetry = false
xc_grid = 000075000302
$end
