$molecule
0    1
    O     -2.61059850      1.13128731      0.00000000
    H     -3.05597452      0.91545253      0.82269560
    C     -2.39557586      2.53583192     -0.01360777
    H     -1.89307949      2.76670347     -0.94773931
    H     -3.33136764      3.09505235      0.01978407
    H     -1.75786627      2.86299900      0.80881821
$end
   
$rem
mem_static = 200
mem_total  = 7500
exchange = b3lyp
basis = G3Large
max_scf_cycles = 50
scf_convergence = 7
symmetry = false
xc_grid = 000075000302
$end
