$molecule
0    1
    O     -2.10827613      0.00000000     -1.13128731
    H     -2.76019673     -0.40960642     -0.55770680
    C     -2.54839092      1.32388263     -1.40110060
    H     -1.80442318      1.77507145     -2.05021283
    H     -3.50908022      1.34028584     -1.91719726
    H     -2.62298922      1.92607243     -0.49451423
$end
   
$rem
mem_static = 200
mem_total  = 7500
exchange = b3lyp
basis = G3Large
max_scf_cycles = 50
scf_convergence = 7
symmetry = false
xc_grid = 000075000302
$end
