$molecule
0    1
    O     -0.00275042      0.00000000      0.00000000
    H      0.64917019     -0.40960642     -0.57358051
    C      0.43736437      1.32388263      0.26981329
    H     -0.30660336      1.77507145      0.91892551
    H      1.39805367      1.34028584      0.78590994
    H      0.51196267      1.92607243     -0.63677308
$end
   
$rem
mem_static = 200
mem_total  = 7500
exchange = b3lyp
basis = G3Large
max_scf_cycles = 50
scf_convergence = 7
symmetry = false
xc_grid = 000075000302
$end
