$molecule
0    1
    N     -2.07089866      0.00000000      1.13830109
    H     -1.71577855      0.03765438      2.08528291
    H     -2.91276467     -0.55917711      1.18488200
    C     -2.40550176      1.35631200      0.69373634
    H     -2.83497097      1.30532932     -0.30442766
    H     -3.10853852      1.89076899      1.33734566
    H     -1.48950069      1.93848226      0.62500951
$end
   
$rem
mem_static = 200
mem_total  = 7500
exchange = b3lyp
basis = G3Large
max_scf_cycles = 50
scf_convergence = 7
symmetry = false
xc_grid = 000075000302
$end
