$molecule
0    1
    O      0.91468222      0.26512447      0.48092752
    H      0.11279647      0.00000000      0.00000000
    H      1.39505937     -0.55552674      0.59708388
$end
   
$rem
mem_static = 200
mem_total  = 7500
exchange = b3lyp
basis = G3Large
max_scf_cycles = 50
scf_convergence = 7
symmetry = false
xc_grid = 000075000302
$end
