$molecule
0    1
    O     -2.93293920      1.68686619     -0.01555257
    H     -2.25583940      0.98980307     -0.00000000
    H     -3.75384485      1.21320989      0.12404164
$end
   
$rem
mem_static = 200
mem_total  = 7500
exchange = b3lyp
basis = G3Large
max_scf_cycles = 50
scf_convergence = 7
symmetry = false
xc_grid = 000075000302
$end
