$molecule
0    1
    O      0.83487588      0.69706312      0.01555257
    H      0.15777608      0.00000000      0.00000000
    H      1.65578153      0.22340683     -0.12404164
$end
   
$rem
mem_static = 200
mem_total  = 7500
exchange = b3lyp
basis = G3Large
max_scf_cycles = 50
scf_convergence = 7
symmetry = false
xc_grid = 000075000302
$end
