$molecule
0    1
    O     -2.27888224      1.00740139     -0.00000000
    H     -3.05143604      1.12959994      0.55636269
    C     -2.36768762      1.92442033     -1.08596428
    H     -1.48413645      1.76830733     -1.69728765
    H     -3.24977754      1.74327827     -1.69979347
    H     -2.37437187      2.95965813     -0.74482813
$end
   
$rem
mem_static = 200
mem_total  = 7500
exchange = b3lyp
basis = G3Large
max_scf_cycles = 50
scf_convergence = 7
symmetry = false
xc_grid = 000075000302
$end
