$molecule
0    1
    O     -1.91547236     -0.00000000      1.00740139
    H     -2.26961989     -0.28044986      1.85430086
    C     -2.92213938      0.74975901      0.33463732
    H     -2.49753878      1.05633677     -0.61640137
    H     -3.81218461      0.15184042      0.13971628
    H     -3.20485562      1.64295912      0.89177371
$end
   
$rem
mem_static = 200
mem_total  = 7500
exchange = b3lyp
basis = G3Large
max_scf_cycles = 50
scf_convergence = 7
symmetry = false
xc_grid = 000075000302
$end
