$molecule
0    1
    O     -1.92380543     -0.00000000     -1.00740139
    H     -2.83431565     -0.28044986     -0.89065241
    C     -1.84450817      0.74975901     -2.21558263
    H     -0.80858420      1.05633677     -2.32338707
    H     -2.12072421      0.15184042     -3.08384493
    H     -2.46836055      1.64295912     -2.18185388
$end
   
$rem
mem_static = 200
mem_total  = 7500
exchange = b3lyp
basis = G3Large
max_scf_cycles = 50
scf_convergence = 7
symmetry = false
xc_grid = 000075000302
$end
