$molecule
0    1
    O      0.05729076      0.00000000      0.00000000
    H      0.41143829     -0.28044986     -0.84689947
    C      1.06395778      0.74975901      0.67276406
    H      0.63935718      1.05633677      1.62380276
    H      1.95400301      0.15184042      0.86768511
    H      1.34667402      1.64295912      0.11562767
$end
   
$rem
mem_static = 200
mem_total  = 7500
exchange = b3lyp
basis = G3Large
max_scf_cycles = 50
scf_convergence = 7
symmetry = false
xc_grid = 000075000302
$end
