$molecule
0    1
    O      0.03178228      0.00000000      0.00000000
    H      0.52388623     -0.60795195     -0.55636269
    C      0.87034667      0.38160175      1.08596428
    H      0.29337327      1.06872302      1.69728765
    H      1.15451801     -0.47288156      1.69979347
    H      1.77023103      0.89343193      0.74482813
$end
   
$rem
mem_static = 200
mem_total  = 7500
exchange = b3lyp
basis = G3Large
max_scf_cycles = 50
scf_convergence = 7
symmetry = false
xc_grid = 000075000302
$end
