$molecule
0    1
    N     -1.93061036     -1.03286285     -0.00000000
    H     -2.54634279     -0.88803177      0.79036973
    H     -1.81749968     -2.03630548     -0.07156888
    C     -2.57191519     -0.52704406     -1.21924637
    H     -1.91033277     -0.69769669     -2.06520332
    H     -3.54031266     -0.97802405     -1.44468674
    H     -2.70962600      0.54791775     -1.12910054
$end
   
$rem
mem_static = 200
mem_total  = 7500
exchange = b3lyp
basis = G3Large
max_scf_cycles = 50
scf_convergence = 7
symmetry = false
xc_grid = 000075000302
$end
