$molecule
0    1
    N     -1.98372051     -0.00000000      1.03286285
    H     -1.98762127      0.43329362      1.94775531
    H     -2.36917535     -0.92556215      1.17276468
    C     -2.85529636      0.75870434      0.12820296
    H     -2.85598277      0.28012362     -0.84822768
    H     -3.88959471      0.85234295      0.46503928
    H     -2.44803443      1.75850398     -0.00283838
$end
   
$rem
mem_static = 200
mem_total  = 7500
exchange = b3lyp
basis = G3Large
max_scf_cycles = 50
scf_convergence = 7
symmetry = false
xc_grid = 000075000302
$end
