$molecule
0    1
    N      0.06804145      0.00000000      0.00000000
    H      0.07194220      0.43329362     -0.91489245
    H      0.45349628     -0.92556215     -0.13990183
    C      0.93961729      0.75870434      0.90465989
    H      0.94030370      0.28012362      1.88109054
    H      1.97391564      0.85234295      0.56782357
    H      0.53235536      1.75850398      1.03570123
$end
   
$rem
mem_static = 200
mem_total  = 7500
exchange = b3lyp
basis = G3Large
max_scf_cycles = 50
scf_convergence = 7
symmetry = false
xc_grid = 000075000302
$end
