$molecule
0    1
    N      0.14933386      0.00000000      0.00000000
    H      0.33177268      0.60565547     -0.79036973
    H      0.96178533     -0.59967804      0.07156888
    C      0.03193435      0.80829567      1.21924637
    H     -0.15106735      0.15002217      2.06520332
    H      0.90669322      1.42146249      1.44468674
    H     -0.83015448      1.46503763      1.12910054
$end
   
$rem
mem_static = 200
mem_total  = 7500
exchange = b3lyp
basis = G3Large
max_scf_cycles = 50
scf_convergence = 7
symmetry = false
xc_grid = 000075000302
$end
