$molecule
0    1
    C     -2.39497940      0.17722577     -2.00615901
    H     -2.96976405     -0.01682782     -2.90842545
    H     -1.34501916      0.29401880     -2.26094765
    H     -2.73190086      1.11496130     -1.56797585
    C     -2.52891739     -0.91361389     -0.97271859
    O     -1.77897897     -0.98466511      0.00000000
    N     -3.53919560     -1.79154467     -1.18020144
    H     -4.11835050     -1.66211441     -1.98959713
    C     -3.83237852     -2.86995677     -0.26040748
    H     -3.06714163     -2.85223004      0.50851672
    H     -4.80728070     -2.73629370      0.20449527
    H     -3.80775905     -3.83066187     -0.76995324
$end
   
$rem
mem_static = 200
mem_total  = 7500
exchange = b3lyp
basis = G3Large
max_scf_cycles = 50
scf_convergence = 7
symmetry = false
xc_grid = 000075000302
$end
