$molecule
0    1
    C      0.02919584      1.31422723      1.71364795
    H      0.09317877      1.43356421      2.79243607
    H     -0.93624153      0.89039284      1.45045701
    H      0.09492712      2.29479075      1.24562760
    C      1.11871697      0.43650137      1.14936907
    O      1.07338853      0.00000000      0.00000000
    N      2.15283938      0.18133011      1.98600047
    H      2.12646276      0.58299746      2.90538158
    C      3.29958969     -0.60601070      1.58599050
    H      3.10244822     -0.97327734      0.58429363
    H      4.20533989     -0.00280399      1.57210216
    H      3.44234972     -1.45031546      2.25678580
$end
   
$rem
mem_static = 200
mem_total  = 7500
exchange = b3lyp
basis = G3Large
max_scf_cycles = 50
scf_convergence = 7
symmetry = false
xc_grid = 000075000302
$end
