$molecule
0    1
    O     -1.91283468     -1.04043517     -0.00000000
    H     -2.37489820     -1.39145134     -0.76416029
    H     -2.34581652     -1.45803912      0.74753498
$end
   
$rem
mem_static = 200
mem_total  = 7500
exchange = b3lyp
basis = G3Large
max_scf_cycles = 50
scf_convergence = 7
symmetry = false
xc_grid = 000075000302
$end
