$molecule
0    1
    N      0.02224628      0.00000000      0.00000000
    C      0.65292848      1.14510731     -0.29471496
    H      0.11836653      2.05565517     -0.05549506
    C      1.91884588      1.19586784     -0.87005085
    H      2.37695561      2.15045584     -1.08499344
    C      2.57138760      0.00138295     -1.15650878
    H      3.55616922      0.00190654     -1.60253536
    C      1.92759688     -1.19377211     -0.85362195
    H      2.39268639     -2.14785420     -1.05547589
    C      0.66129718     -1.14439343     -0.27897752
    H      0.13340034     -2.05545121     -0.02727658
$end
   
$rem
mem_static = 200
mem_total  = 7500
exchange = b3lyp
basis = G3Large
max_scf_cycles = 50
scf_convergence = 7
symmetry = false
xc_grid = 000075000302
$end
