$molecule
0    1
    N     -1.87241441      0.00000000     -0.99775995
    C     -2.44298616      1.14510731     -1.39658927
    H     -1.96853467      2.05565517     -1.05325501
    C     -3.57420035      1.19586784     -2.20523797
    H     -3.98940096      2.15045584     -2.49450133
    C     -4.14855105      0.00138295     -2.62712671
    H     -5.02721221      0.00190654     -3.25695932
    C     -3.56434801     -1.19377211     -2.22103100
    H     -3.97170340     -2.14785420     -2.52288336
    C     -2.43354148     -1.14439343     -1.41170551
    H     -1.95161365     -2.05545121     -1.08038390
$end
   
$rem
mem_static = 200
mem_total  = 7500
exchange = b3lyp
basis = G3Large
max_scf_cycles = 50
scf_convergence = 7
symmetry = false
xc_grid = 000075000302
$end
