$molecule
0    1
    N     -1.86786632      0.00000000      0.97639532
    C     -3.04388799     -0.01468529      0.33400419
    H     -2.99343892     -0.00656926     -0.74739297
    C     -4.27188598     -0.04122012      0.98764983
    H     -5.18861725     -0.05252533      0.41591312
    C     -4.28883234     -0.05352290      2.37845651
    H     -5.22409604     -0.07502583      2.92009496
    C     -3.07412316     -0.03851229      3.05602883
    H     -3.03452500     -0.04767223      4.13563111
    C     -1.89606245     -0.01206866      2.31616101
    H     -0.93293484     -0.00186185      2.81064454
$end
   
$rem
mem_static = 200
mem_total  = 7500
exchange = b3lyp
basis = G3Large
max_scf_cycles = 50
scf_convergence = 7
symmetry = false
xc_grid = 000075000302
$end
