$molecule
0    1
    N      0.07030979     -0.00000000     -0.00000000
    C      0.10199359     -0.01468529      1.33966021
    H     -0.85974836     -0.00656926      1.83666861
    C      1.28206631     -0.04122012      2.07631484
    H      1.24529343     -0.05252533      3.15609577
    C      2.49501341     -0.05352290      1.39558748
    H      3.43171792     -0.07502583      1.93473038
    C      2.47445366     -0.03851229      0.00483231
    H      3.38961758     -0.04767223     -0.56926184
    C      1.24467898     -0.01206866     -0.64546428
    H      1.19135047     -0.00186185     -1.72679902
$end
   
$rem
mem_static = 200
mem_total  = 7500
exchange = b3lyp
basis = G3Large
max_scf_cycles = 50
scf_convergence = 7
symmetry = false
xc_grid = 000075000302
$end
