$molecule
0    1
    C      1.02973087     -0.10592628      0.54198831
    O      0.41492363     -1.10402313      0.18740020
    O      0.62714476      1.13332188      0.30951809
    H     -0.23373800      1.10402313     -0.18740020
    C      2.32602745     -0.16013364      1.28960841
    H      2.61173502     -1.19126938      1.45738417
    H      3.09353003      0.35645545      0.71834420
    H      2.21783201      0.36128970      2.23762943
$end
   
$rem
mem_static = 200
mem_total  = 7500
exchange = b3lyp
basis = G3Large
max_scf_cycles = 50
scf_convergence = 7
symmetry = false
xc_grid = 000075000302
$end
