$molecule
0    1
    C      1.02958980     -0.10592628     -0.54232326
    O      0.41510387     -1.10402313     -0.18717862
    O      0.62697163      1.13332188     -0.30990857
    H     -0.23381361      1.10402313      0.18717862
    C      2.32519609     -0.16013364     -1.29113897
    H      2.61334795     -1.19126938     -1.45468111
    H      2.21421806      0.35645545     -2.24144782
    H      3.09210866      0.36128970     -0.72342847
$end
   
$rem
mem_static = 200
mem_total  = 7500
exchange = b3lyp
basis = G3Large
max_scf_cycles = 50
scf_convergence = 7
symmetry = false
xc_grid = 000075000302
$end
