$molecule
0    1
    C      1.06550426     -0.11114223     -0.56118786
    O      0.51706201     -1.16923936     -0.24488428
    N      0.55449166      1.09752247     -0.26387857
    H     -0.32856174      1.16923936      0.24488428
    H      1.03595835      1.92999523     -0.54277635
    C      2.37039085     -0.12103350     -1.32018242
    H      2.76487841      0.87290689     -1.51423177
    H      2.21586281     -0.63697813     -2.26466005
    H      3.09735907     -0.69256089     -0.74899073
$end
   
$rem
mem_static = 200
mem_total  = 7500
exchange = b3lyp
basis = G3Large
max_scf_cycles = 50
scf_convergence = 7
symmetry = false
xc_grid = 000075000302
$end
