$molecule
0    1
    N      2.27733506     -0.02684630      1.22573661
    H      2.69779957     -0.91855421      1.44801103
    C      2.98752985      1.11241989      1.64076667
    O      4.04695773      0.99569674      2.23317996
    C      2.32362997      2.35105568      1.28646861
    H      2.78633869      3.28355563      1.55953939
    C      1.14649652      2.31133369      0.62552253
    H      0.61260455      3.20555423      0.33901675
    N      0.53942019      1.14040895      0.26793955
    H     -0.36061067      1.14829441     -0.23863842
    C      1.08022738     -0.08502353      0.55243920
    O      0.55141263     -1.14829441      0.23863842
$end
   
$rem
mem_static = 200
mem_total  = 7500
exchange = b3lyp
basis = G3Large
max_scf_cycles = 50
scf_convergence = 7
symmetry = false
xc_grid = 000075000302
$end
