$molecule
0    1
    N     -3.82766645     -0.02684630      2.18272338
    H     -4.23039400     -0.91855421      2.43571912
    C     -4.54219042      1.11241989      2.59025507
    O     -5.58494932      0.99569674      3.21153989
    C     -3.90340936      2.35105568      2.19244995
    H     -4.37124996      3.28355563      2.45663207
    C     -2.74244654      2.31133369      1.50349552
    H     -2.22737927      3.20555423      1.18438439
    N     -2.12923243      1.14040895      1.15654348
    H     -1.24050761      1.14829441      0.63038288
    C     -2.64601995     -0.08502353      1.48264642
    O     -2.10985313     -1.14829441      1.18157981
$end
   
$rem
mem_static = 200
mem_total  = 7500
exchange = b3lyp
basis = G3Large
max_scf_cycles = 50
scf_convergence = 7
symmetry = false
xc_grid = 000075000302
$end
