$molecule
0    1
    C     -4.58841741     -1.04086409     -0.68451463
    H     -5.27377952     -0.39435112     -1.21598751
    C     -4.74742331     -1.24984647      0.68451463
    H     -5.55676760     -0.76664795      1.21524987
    C     -3.86622584     -2.08568669      1.36807331
    H     -3.99044561     -2.24965129      2.43009282
    C     -2.82385393     -2.70850889      0.68366665
    H     -2.13587480     -3.35205104      1.21489601
    C     -2.66329725     -2.49785961     -0.68402174
    H     -1.84802909     -2.97266248     -1.21232918
    C     -3.54645030     -1.66484615     -1.36793506
    H     -3.42000342     -1.49932299     -2.42933806
$end
   
$rem
mem_static = 200
mem_total  = 7500
exchange = b3lyp
basis = G3Large
max_scf_cycles = 50
scf_convergence = 7
symmetry = false
xc_grid = 000075000302
$end
