$molecule
0    1
    C      1.60678804      0.83357111      0.68451463
    H      2.29215015      1.48008408      1.21598751
    C      1.76579394      0.62458874     -0.68451463
    H      2.57513823      1.10778725     -1.21524987
    C      0.88459648     -0.21125149     -1.36807331
    H      1.00881624     -0.37521609     -2.43009282
    C     -0.15777543     -0.83407369     -0.68366665
    H     -0.84575457     -1.47761584     -1.21489601
    C     -0.31833212     -0.62342441      0.68402174
    H     -1.13360027     -1.09822727      1.21232918
    C      0.56482094      0.20958905      1.36793506
    H      0.43837405      0.37511221      2.42933806
$end
   
$rem
mem_static = 200
mem_total  = 7500
exchange = b3lyp
basis = G3Large
max_scf_cycles = 50
scf_convergence = 7
symmetry = false
xc_grid = 000075000302
$end
