$molecule
0    1
    C     -4.51655546      1.16319960      1.45541743
    H     -5.01636516      2.06577731      1.13029068
    C     -4.04178729      1.06171850      2.76212872
    H     -4.17419679      1.88485284      3.45141565
    C     -3.40103928     -0.10273910      3.18149826
    H     -3.03419310     -0.18262672      4.19601403
    C     -3.23115360     -1.16330490      2.29312998
    H     -2.72821650     -2.06461832      2.61616994
    C     -3.70336647     -1.06115562      0.98649169
    H     -3.56166474     -1.87998103      0.29464327
    C     -4.34698251      0.10183173      0.56836850
    H     -4.71117522      0.18195555     -0.44696735
$end
   
$rem
mem_static = 200
mem_total  = 7500
exchange = b3lyp
basis = G3Large
max_scf_cycles = 50
scf_convergence = 7
symmetry = false
xc_grid = 000075000302
$end
