$molecule
0    1
    C     -3.68369190      1.16319960     -2.64103155
    H     -3.65202872      2.06577731     -3.23644282
    C     -4.57795299      1.06171850     -1.57651460
    H     -5.24109772      1.88485284     -1.34654113
    C     -4.62076366     -0.10273910     -0.81192578
    H     -5.31593699     -0.18262672      0.01303020
    C     -3.76647131     -1.16330490     -1.10898461
    H     -3.79476357     -2.06461832     -0.51190832
    C     -2.87099580     -1.06115562     -2.17125209
    H     -2.20098663     -1.87998103     -2.39445901
    C     -2.83069851      0.10183173     -2.93770153
    H     -2.13348822      0.18195555     -3.76076960
$end
   
$rem
mem_static = 200
mem_total  = 7500
exchange = b3lyp
basis = G3Large
max_scf_cycles = 50
scf_convergence = 7
symmetry = false
xc_grid = 000075000302
$end
