$molecule
0    1
    N      1.64632498     -0.80796558     -0.68412761
    C      1.67718143     -0.68875528      0.65101849
    H      2.44848346     -1.25483554      1.15936979
    C      0.79510414      0.10581361      1.37797871
    H      0.87723988      0.16000064      2.45456891
    C     -0.18382955      0.81846319      0.69233591
    H     -0.89130080      1.44141262      1.22188620
    C     -0.23251492      0.70493757     -0.69233591
    H     -0.97943695      1.22820983     -1.27198911
    C      0.70003251     -0.11216871     -1.32830226
    H      0.68595933     -0.21695222     -2.40646446
$end
   
$rem
mem_static = 200
mem_total  = 7500
exchange = b3lyp
basis = G3Large
max_scf_cycles = 50
scf_convergence = 7
symmetry = false
xc_grid = 000075000302
$end
