$molecule
0    1
    N     -3.55935180     -2.99267359      0.68412761
    C     -3.67801918     -2.95979091     -0.65101849
    H     -3.57343031     -3.91079820     -1.15936979
    C     -3.92509738     -1.79860513     -1.37797871
    H     -4.01309260     -1.84264325     -2.45456891
    C     -4.05280317     -0.59449889     -0.69233591
    H     -4.23855758      0.32966389     -1.22188620
    C     -3.93014442     -0.60909893      0.69233591
    H     -4.00985047      0.29939065      1.27198911
    C     -3.68878333     -1.82526184      1.32830226
    H     -3.59100156     -1.86546587      2.40646446
$end
   
$rem
mem_static = 200
mem_total  = 7500
exchange = b3lyp
basis = G3Large
max_scf_cycles = 50
scf_convergence = 7
symmetry = false
xc_grid = 000075000302
$end
