$molecule
0    1
    N     -3.80547474     -0.72421758      0.03733121
    H     -4.10218925      0.24446492      0.04280082
    C     -3.52021074     -1.29465623      1.28441575
    O     -3.67550422     -0.65266245      2.31221174
    N     -3.07436987     -2.54254368     -1.17502397
    H     -2.81105111     -3.18857376      2.10700220
    C     -2.80575570     -3.21159177     -0.01299957
    H     -2.40417373     -4.20668929     -0.13219378
    C     -3.02559330     -2.65607252      1.19666202
    H     -2.79489540     -2.92295070     -2.06489587
    C     -3.55039836     -1.24544455     -1.21640472
    O     -3.71314207     -0.63080783     -2.25286238
$end
   
$rem
mem_static = 200
mem_total  = 7500
exchange = b3lyp
basis = G3Large
max_scf_cycles = 50
scf_convergence = 7
symmetry = false
xc_grid = 000075000302
$end
