$molecule
0    1
    N     -4.43520684     -1.02557627     -1.19757429
    C     -4.00128849     -1.15305021     -2.45939071
    H     -4.22424424     -2.09597227     -2.94404673
    C     -3.30704135     -0.15906311     -3.14385944
    H     -2.98630606     -0.32649653     -4.16252072
    C     -3.03860373      1.03936832     -2.49059316
    H     -2.49641267      1.83282309     -2.98614787
    C     -3.47938182      1.18836604     -1.18075272
    H     -3.28917091      2.09527214     -0.62498338
    C     -4.16799711      0.13521856     -0.58413742
    H     -4.52086398      0.22429908      0.43609568
$end
   
$rem
mem_static = 200
mem_total  = 7500
exchange = b3lyp
basis = G3Large
max_scf_cycles = 50
scf_convergence = 7
symmetry = false
xc_grid = 000075000302
$end
