$molecule
0    1
    N      1.10170984     -1.02557627     -0.64247313
    C      0.66779148     -1.15305021      0.61934329
    H      0.89074723     -2.09597227      1.10399931
    C     -0.02645565     -0.15906311      1.30381202
    H     -0.34719094     -0.32649653      2.32247330
    C     -0.29489328      1.03936832      0.65054574
    H     -0.83708433      1.83282309      1.14610045
    C      0.14588482      1.18836604     -0.65929470
    H     -0.04432609      2.09527214     -1.21506404
    C      0.83450010      0.13521856     -1.25591000
    H      1.18736697      0.22429908     -2.27614310
$end
   
$rem
mem_static = 200
mem_total  = 7500
exchange = b3lyp
basis = G3Large
max_scf_cycles = 50
scf_convergence = 7
symmetry = false
xc_grid = 000075000302
$end
