$molecule
0    1
    N     -0.27529665      0.62671402      0.01603161
    H     -1.06603833      1.25494470      0.05724562
    C      0.15460161      0.26470878     -1.26653094
    O     -0.37659128      0.73851842     -2.25675869
    C      1.25255571     -0.68646699     -1.25851967
    H      1.66026761     -1.01431631     -2.19915941
    C      1.74153895     -1.13415658     -0.08410171
    H      2.55691494     -1.83996215     -0.02538164
    N      1.22799570     -0.72312779      1.11597466
    H      1.60134960     -1.06078889      1.98702968
    C      0.18666142      0.18306424      1.23520738
    O     -0.25530663      0.54406610      2.30851187
$end
   
$rem
mem_static = 200
mem_total  = 7500
exchange = b3lyp
basis = G3Large
max_scf_cycles = 50
scf_convergence = 7
symmetry = false
xc_grid = 000075000302
$end
