$molecule
0    1
    N      0.61513699      0.89489490      0.16217149
    H      0.31471959      1.83432948      0.38320739
    C      0.13952653      0.36644005     -1.04421036
    O     -0.54881642      1.04236767     -1.79021189
    C      0.55512656     -1.00627939     -1.27490653
    H      0.24862769     -1.49406118     -2.18410654
    C      1.31521768     -1.63848157     -0.35764430
    H      1.65048693     -2.65741511     -0.48340799
    N      1.70807912     -1.02574856      0.80126588
    H      2.27741051     -1.50484861      1.47836995
    C      1.37908743      0.27970390      1.12888741
    O      1.74058203      0.81332470      2.15952368
$end
   
$rem
mem_static = 200
mem_total  = 7500
exchange = b3lyp
basis = G3Large
max_scf_cycles = 50
scf_convergence = 7
symmetry = false
xc_grid = 000075000302
$end
