$molecule
0    1
    N      0.77670985      0.85032144      0.32323090
    H      0.97904954      1.77077955      0.68823280
    C      0.88089529      0.70360483     -1.06606495
    O      1.22253569      1.64454835     -1.76398292
    C      0.54094819     -0.62895635     -1.52881754
    H      0.60055888     -0.84289755     -2.58195314
    C      0.14468015     -1.56427229     -0.64103522
    H     -0.13717622     -2.56340286     -0.93770391
    N      0.07283486     -1.30586813      0.69945631
    H     -0.28477074     -1.99318845      1.34143737
    C      0.36258112     -0.07477665      1.25775033
    O      0.26292952      0.15725609      2.44753846
$end
   
$rem
mem_static = 200
mem_total  = 7500
exchange = b3lyp
basis = G3Large
max_scf_cycles = 50
scf_convergence = 7
symmetry = false
xc_grid = 000075000302
$end
