$molecule
0    1
    N     -3.09642447      0.85709343     -1.83729372
    H     -2.66710824      1.75540338     -2.01089577
    C     -3.93274163      0.78212584     -0.71592100
    O     -4.13049042      1.76782703     -0.02420505
    C     -4.48617352     -0.54187955     -0.50110438
    H     -5.15008859     -0.69735271      0.33164033
    C     -4.15008501     -1.55002093     -1.33218631
    H     -4.51966331     -2.55622157     -1.20299894
    N     -3.31406299     -1.36215901     -2.39737506
    H     -3.02248669     -2.13619867     -2.97032929
    C     -2.71914743     -0.15112938     -2.69856281
    O     -1.94904155     -0.00000894     -3.62779097
$end
   
$rem
mem_static = 200
mem_total  = 7500
exchange = b3lyp
basis = G3Large
max_scf_cycles = 50
scf_convergence = 7
symmetry = false
xc_grid = 000075000302
$end
