$molecule
0    1
    N     -0.08819044      0.63420792      0.32323090
    H     -0.78416070      1.26966830      0.68823280
    C      0.09096259      0.65107686     -1.06606495
    O     -0.55309820      1.41741788     -1.76398292
    C      1.07502088     -0.30960656     -1.52881754
    H      1.29010473     -0.36495279     -2.58195314
    C      1.68689422     -1.12044272     -0.64103522
    H      2.41123850     -1.86410278     -0.93770391
    N      1.42718700     -1.05346048      0.69945631
    H      1.84362107     -1.70681618      1.34143737
    C      0.50590364     -0.18698712      1.25775033
    O      0.25513160     -0.15727157      2.44753846
$end
   
$rem
mem_static = 200
mem_total  = 7500
exchange = b3lyp
basis = G3Large
max_scf_cycles = 50
scf_convergence = 7
symmetry = false
xc_grid = 000075000302
$end
