$molecule
0    1
    C      0.03963741      0.57625113     -0.03773332
    H     -0.21863070      1.01465085     -0.99096629
    H     -0.27093051      1.10516900      0.85184404
    C      0.70467031     -0.57560709      0.03773335
    H      1.00744506     -1.10902216     -0.85184433
    H      0.95520903     -1.01847205      0.99096611
$end
   
$rem
mem_static = 200
mem_total  = 7500
exchange = b3lyp
basis = G3Large
max_scf_cycles = 50
scf_convergence = 7
symmetry = false
xc_grid = 000075000302
$end
