$molecule
0    1
    C     -3.71902140      0.66502748      1.75089313
    H     -3.23853649      1.17382684      2.57418366
    H     -4.15991230      1.27836776      0.97824616
    C     -3.75676018     -0.66502745      1.68554022
    H     -3.30807690     -1.27836582      2.45368863
    H     -4.22951445     -1.17382912      0.85778664
$end
   
$rem
mem_static = 200
mem_total  = 7500
exchange = b3lyp
basis = G3Large
max_scf_cycles = 50
scf_convergence = 7
symmetry = false
xc_grid = 000075000302
$end
