$molecule
0    1
    C      0.70466205      0.57561026     -0.03773332
    H      0.95519329      1.01847687     -0.99096629
    H      1.00743441      1.10902890      0.85184404
    C      0.03964002     -0.57625424      0.03773335
    H     -0.27092360     -1.10517240     -0.85184433
    H     -0.21862292     -1.01465962      0.99096611
$end
   
$rem
mem_static = 200
mem_total  = 7500
exchange = b3lyp
basis = G3Large
max_scf_cycles = 50
scf_convergence = 7
symmetry = false
xc_grid = 000075000302
$end
