$molecule
0    1
    C     -3.44837409      2.29414581      0.03773332
    H     -3.19010598      2.73254554      0.99096629
    H     -3.13780618      2.82306369     -0.85184404
    C     -4.11340700      1.14228759     -0.03773335
    H     -4.41618175      0.60887253      0.85184433
    H     -4.36394572      0.69942263     -0.99096611
$end
   
$rem
mem_static = 200
mem_total  = 7500
exchange = b3lyp
basis = G3Large
max_scf_cycles = 50
scf_convergence = 7
symmetry = false
xc_grid = 000075000302
$end
