$molecule
0    1
    C      0.75441817      0.03548903      0.55553891
    H      0.68822297      0.88049592      1.22629381
    H      1.44888350     -0.75018719      0.81850779
    C      0.01941641     -0.03556274     -0.55482803
    H     -0.66952458      0.75110986     -0.82866080
    H      0.09415279     -0.88054032     -1.22461175
$end
   
$rem
mem_static = 200
mem_total  = 7500
exchange = b3lyp
basis = G3Large
max_scf_cycles = 50
scf_convergence = 7
symmetry = false
xc_grid = 000075000302
$end
