$molecule
0    1
    C      0.22029294      0.05076339      0.66460857
    H     -0.54230229      0.58620873      1.21240175
    H      1.02011119     -0.39468208      1.23957896
    C      0.18537050     -0.05144261     -0.66449829
    H     -0.60609847      0.39997384     -1.24611492
    H      0.95393643     -0.58340693     -1.20717983
$end
   
$rem
mem_static = 200
mem_total  = 7500
exchange = b3lyp
basis = G3Large
max_scf_cycles = 50
scf_convergence = 7
symmetry = false
xc_grid = 000075000302
$end
