$molecule
0    1
    C     -3.47770965      2.15582103     -0.00658222
    H     -2.89216282      3.04300620      0.00000000
    C     -4.12496892      1.13030812      0.00452960
    H     -4.69775899      0.23620512      0.02445919
$end
   
$rem
mem_static = 200
mem_total  = 7500
exchange = b3lyp
basis = G3Large
max_scf_cycles = 50
scf_convergence = 7
symmetry = false
xc_grid = 000075000302
$end
