$molecule
0    1
    C     -3.61779212     -1.10644084     -0.00658222
    H     -4.09334360     -0.15574983      0.00000000
    C     -3.05330152     -2.17974026      0.00452960
    H     -2.56538064     -3.12284251      0.02445919
$end
   
$rem
mem_static = 200
mem_total  = 7500
exchange = b3lyp
basis = G3Large
max_scf_cycles = 50
scf_convergence = 7
symmetry = false
xc_grid = 000075000302
$end
