$molecule
0    1
    C     -0.02408383      0.60585994     -0.00596547
    H     -0.07579039      1.66695824     -0.04341876
    C      0.02285642     -0.60588993      0.00830466
    H      0.07525581     -1.66660088      0.01554476
$end
   
$rem
mem_static = 200
mem_total  = 7500
exchange = b3lyp
basis = G3Large
max_scf_cycles = 50
scf_convergence = 7
symmetry = false
xc_grid = 000075000302
$end
