$molecule
0    1
    C     -4.04492575      0.00033813     -1.11751083
    H     -4.19405554     -0.91145887     -0.55742936
    H     -4.45492497      0.91133369     -0.70495843
    C     -3.37864891     -0.00016490     -2.27169041
    H     -2.96854484     -0.91236663     -2.68034638
    H     -3.22610460      0.91042758     -2.83365582
$end
   
$rem
mem_static = 200
mem_total  = 7500
exchange = b3lyp
basis = G3Large
max_scf_cycles = 50
scf_convergence = 7
symmetry = false
xc_grid = 000075000302
$end
