$molecule
0    1
    C      0.03741575      0.00033813     -0.57712458
    H     -0.37306413     -0.91145887     -0.98631550
    H     -0.11486550      0.91133369     -1.13847053
    C      0.70382617     -0.00016490      0.57697787
    H      0.85268059     -0.91236663      1.13646640
    H      1.11423034      0.91042758      0.99006783
$end
   
$rem
mem_static = 200
mem_total  = 7500
exchange = b3lyp
basis = G3Large
max_scf_cycles = 50
scf_convergence = 7
symmetry = false
xc_grid = 000075000302
$end
