$molecule
0    1
    C      0.07195521      0.00034638     -0.66634423
    H      0.39717867     -0.86473825     -1.22595391
    H     -0.25468358      0.86368845     -1.22862471
    C      0.07227352     -0.00005070      0.66634302
    H      0.39774956     -0.86545684      1.22530151
    H     -0.25409279      0.86298325      1.22929151
$end
   
$rem
mem_static = 200
mem_total  = 7500
exchange = b3lyp
basis = G3Large
max_scf_cycles = 50
scf_convergence = 7
symmetry = false
xc_grid = 000075000302
$end
