$molecule
0    1
    C      0.22525965      0.00023928     -0.66634423
    H     -0.36131389     -0.71395481     -1.22595391
    H      0.80961642      0.71478781     -1.22862471
    C      0.22507492     -0.00023492      0.66634302
    H     -0.36165076     -0.71480851      1.22530151
    H      0.80930109      0.71392357      1.22929151
$end
   
$rem
mem_static = 200
mem_total  = 7500
exchange = b3lyp
basis = G3Large
max_scf_cycles = 50
scf_convergence = 7
symmetry = false
xc_grid = 000075000302
$end
