$molecule
0    1
    C     -3.54553914     -2.20315650     -2.53343267
    H     -2.45703552     -2.24579249     -2.56777141
    H     -3.91818770     -3.22701667     -2.56364616
    H     -3.88766859     -1.69588018     -3.43436852
    C     -4.02031910     -1.49411610     -1.27196217
    H     -5.11153072     -1.44153768     -1.26676836
    H     -3.66386213     -0.46119257     -1.27112817
    C     -3.54884523     -2.18546803      0.00016168
    H     -3.90326204     -3.22061188      0.00061435
    H     -2.45592574     -2.23589908      0.00033426
    C     -4.02058453     -1.49298498      1.27157341
    H     -5.11178019     -1.43995606      1.26594112
    H     -3.66371405     -0.46019909      1.27017070
    C     -3.54653580     -2.20142172      2.53364820
    H     -2.45805451     -2.24488725      2.56808754
    H     -3.88834824     -1.69330684      3.43419493
    H     -3.91996034     -3.22499645      2.56447729
$end
   
$rem
mem_static = 200
mem_total  = 7500
exchange = b3lyp
basis = G3Large
max_scf_cycles = 50
scf_convergence = 7
symmetry = false
xc_grid = 000075000302
$end
