$molecule
0    1
    C     -3.34923597     -0.33448504     -4.10750101
    H     -2.53415080     -0.91566070     -3.67656234
    H     -4.05696010     -1.03484968     -4.55099326
    H     -2.93570803      0.27589387     -4.90906166
    C     -4.02903268      0.51695194     -3.04336117
    H     -4.82727118      1.10809200     -3.49822708
    H     -3.31483794      1.23326147     -2.63005762
    C     -4.61085337     -0.31751333     -1.91035340
    H     -5.32512275     -1.03676580     -2.32221432
    H     -3.81308734     -0.90764765     -1.44956368
    C     -5.30050976      0.51806424     -0.84042688
    H     -6.09312816      1.10958646     -1.30454895
    H     -4.58494614      1.23404781     -0.42891575
    C     -5.88277271     -0.33248435      0.28072188
    H     -5.10245254     -0.91436724      0.77100706
    H     -6.36938521      0.27846227      1.03963782
    H     -6.62147652     -1.03221380     -0.11017060
$end
   
$rem
mem_static = 200
mem_total  = 7500
exchange = b3lyp
basis = G3Large
max_scf_cycles = 50
scf_convergence = 7
symmetry = false
xc_grid = 000075000302
$end
