$molecule
0    1
    C     -3.89909405      1.62381142     -2.53343267
    H     -3.39176608      0.65982163     -2.56777141
    H     -4.97210724      1.43460445     -2.56364616
    H     -3.63084459      2.17374237     -3.43436852
    C     -3.52243702      2.38950312     -1.27196217
    H     -4.02250858      3.36080932     -1.26676836
    H     -2.44967052      2.59726410     -1.27112817
    C     -3.88542842      1.63551881      0.00016168
    H     -4.95909770      1.42488085      0.00061435
    H     -3.38264325      0.66380724      0.00033426
    C     -3.52159016      2.39029856      1.27157341
    H     -4.02126360      3.36181618      1.26594112
    H     -2.44873611      2.59763260      1.27017070
    C     -3.89809001      1.62554194      2.53364820
    H     -3.39149162      0.66115673      2.56808754
    H     -3.62895583      2.17561764      3.43419493
    H     -4.97124400      1.43714971      2.56447729
$end
   
$rem
mem_static = 200
mem_total  = 7500
exchange = b3lyp
basis = G3Large
max_scf_cycles = 50
scf_convergence = 7
symmetry = false
xc_grid = 000075000302
$end
