$molecule
0    1
    C      0.22317820     -0.27925932      2.53343267
    H     -0.86532542     -0.32189531      2.56777141
    H      0.59582676     -1.30311949      2.56364616
    H      0.56530765      0.22801700      3.43436852
    C      0.69795816      0.42978108      1.27196217
    H      1.78916978      0.48235950      1.26676836
    H      0.34150119      1.46270462      1.27112817
    C      0.22648429     -0.26157085     -0.00016168
    H      0.58090110     -1.29671470     -0.00061435
    H     -0.86643520     -0.31200190     -0.00033426
    C      0.69822359      0.43091220     -1.27157341
    H      1.78941925      0.48394112     -1.26594112
    H      0.34135311      1.46369809     -1.27017070
    C      0.22417486     -0.27752454     -2.53364820
    H     -0.86430643     -0.32099007     -2.56808754
    H      0.56598730      0.23059035     -3.43419493
    H      0.59759940     -1.30109927     -2.56447729
$end
   
$rem
mem_static = 200
mem_total  = 7500
exchange = b3lyp
basis = G3Large
max_scf_cycles = 50
scf_convergence = 7
symmetry = false
xc_grid = 000075000302
$end
