$molecule
0    1
    C      0.35593172      0.00037961      0.00000519
    C      1.57645179      0.91665297     -0.00014947
    H      2.19216307      0.74312285     -0.88377577
    H      1.27488807      1.96505022      0.00127890
    H      2.19389498      0.74124906      0.88198746
    C     -0.48549081      0.27191476     -1.24439640
    H     -1.36415726     -0.37391239     -1.26690135
    H     -0.82653390      1.30813852     -1.26437740
    H      0.09153311      0.08818995     -2.15201233
    C     -0.48190429      0.26749561      1.24777423
    H     -1.36121228     -0.37754970      1.26988909
    H     -0.82182427      1.30396424      1.27301331
    H      0.09732440      0.07935229      2.15300054
    C      0.81299409     -1.45612766     -0.00323020
    H      1.41712031     -1.67605654      0.87824597
    H     -0.04338947     -2.13207071     -0.00268328
    H      1.41375543     -1.67323486     -0.88770518
$end
   
$rem
mem_static = 200
mem_total  = 7500
exchange = b3lyp
basis = G3Large
max_scf_cycles = 50
scf_convergence = 7
symmetry = false
xc_grid = 000075000302
$end
