$molecule
0    1
    C     -5.16374672      2.65213182      0.00001192
    C     -5.44382695      1.15147851     -0.00152879
    H     -4.51410580      0.58071036     -0.00259771
    H     -6.01568848      0.86214928      0.88137220
    H     -6.01655740      0.86417197     -0.88453106
    C     -4.36499565      3.02033925      1.24771694
    H     -4.15164271      4.09001415      1.27080326
    H     -4.91906026      2.76644661      2.15260129
    H     -3.41394900      2.48652053      1.27413297
    C     -6.48554235      3.41545206     -0.00052255
    H     -6.31195322      4.49243390      0.00206175
    H     -7.07816183      3.16636156      0.88084553
    H     -7.07533637      3.17016537     -0.88484474
    C     -4.36280709      3.02247171     -1.24568065
    H     -4.91403011      2.76747917     -2.15200105
    H     -4.15191080      4.09265222     -1.26795227
    H     -3.41044468      2.49088778     -1.26985290
$end
   
$rem
mem_static = 200
mem_total  = 7500
exchange = b3lyp
basis = G3Large
max_scf_cycles = 50
scf_convergence = 7
symmetry = false
xc_grid = 000075000302
$end
