$molecule
0    1
    C      0.42006687      0.00039917     -0.00000533
    C      1.59680903     -0.97158866      0.00979063
    H      2.22643444     -0.82759725     -0.86932988
    H      2.21478074     -0.82402423      0.89655471
    H      1.24671424     -2.00477824      0.00955145
    C      0.94461087      1.43405556      0.00000000
    H      0.12165375      2.15021416     -0.00623275
    H      1.55165200      1.62545959      0.88608774
    H      1.56187575      1.62186561     -0.87977875
    C     -0.43602908     -0.22825789      1.24340027
    H     -1.28178406      0.46014241      1.26849124
    H      0.15038435     -0.07416540      2.15049656
    H     -0.82859035     -1.24612831      1.26359427
    C     -0.41991354     -0.23441901     -1.25318754
    H     -0.81355596     -1.25187125     -1.27263591
    H     -1.26436924      0.45482846     -1.29330613
    H      0.17837111     -0.08619971     -2.15346906
$end
   
$rem
mem_static = 200
mem_total  = 7500
exchange = b3lyp
basis = G3Large
max_scf_cycles = 50
scf_convergence = 7
symmetry = false
xc_grid = 000075000302
$end
