$molecule
0    1
    C      0.80957933     -0.62558040     -1.10357816
    H      0.14571835     -1.49222224     -1.08007410
    H      1.34021480     -0.64285958     -2.05426393
    C      0.00218646      0.66496411     -0.89538025
    H     -0.99239683      0.60179432     -1.33369680
    H      0.51055175      1.49907209     -1.37810640
    C     -0.04140197      0.88452349      0.63908728
    H     -1.05950392      0.88817796      1.02450353
    H      0.39782994      1.84807797      0.89405447
    C      0.79349373     -0.25740102      1.24660750
    H      0.14760578     -1.10022804      1.49899994
    H      1.31504567      0.03983053      2.15486809
    C      1.73128951     -0.67178836      0.11344631
    H      2.19389726     -1.64522025      0.27031886
    H      2.52889195      0.06652004      0.00121957
$end
   
$rem
mem_static = 200
mem_total  = 7500
exchange = b3lyp
basis = G3Large
max_scf_cycles = 50
scf_convergence = 7
symmetry = false
xc_grid = 000075000302
$end
