$molecule
0    1
    C     -4.53682772      1.49464640      1.10357816
    H     -3.87296675      0.62800456      1.08007410
    H     -5.06746319      1.47736721      2.05426393
    C     -3.72943486      2.78519091      0.89538025
    H     -2.73485157      2.72202112      1.33369680
    H     -4.23780014      3.61929889      1.37810640
    C     -3.68584642      3.00475029     -0.63908728
    H     -2.66774447      3.00840476     -1.02450353
    H     -4.12507833      3.96830477     -0.89405447
    C     -4.52074212      1.86282578     -1.24660750
    H     -3.87485417      1.01999876     -1.49899994
    H     -5.04229406      2.16005733     -2.15486809
    C     -5.45853791      1.44843844     -0.11344631
    H     -5.92114566      0.47500655     -0.27031886
    H     -6.25614034      2.18674684     -0.00121957
$end
   
$rem
mem_static = 200
mem_total  = 7500
exchange = b3lyp
basis = G3Large
max_scf_cycles = 50
scf_convergence = 7
symmetry = false
xc_grid = 000075000302
$end
