$molecule
0    1
    C     -4.75325823     -0.61749216     -1.07368357
    H     -3.86834354     -1.03609552     -0.58991800
    H     -5.61909561     -0.89777411     -0.47581765
    C     -4.60243679      0.90384861     -1.22701301
    H     -4.04830427      1.34643361     -0.40096010
    H     -5.58625318      1.37202465     -1.23761552
    C     -3.89758369      1.11578682     -2.59191638
    H     -2.94288154      1.62800266     -2.48575918
    H     -4.51675536      1.73063352     -3.24380606
    C     -3.72552754     -0.29059667     -3.19408364
    H     -2.74996056     -0.69756230     -2.92227746
    H     -3.79126624     -0.29396256     -4.28080688
    C     -4.81602000     -1.11836452     -2.51521792
    H     -4.66303116     -2.19268514     -2.60803059
    H     -5.79003211     -0.87777191     -2.94797579
$end
   
$rem
mem_static = 200
mem_total  = 7500
exchange = b3lyp
basis = G3Large
max_scf_cycles = 50
scf_convergence = 7
symmetry = false
xc_grid = 000075000302
$end
