$molecule
0    1
    C     -0.14397394      1.16412443      0.16659763
    H     -1.16644812      1.00180197      0.51291695
    H      0.02649032      2.23860908      0.10875200
    C      0.84178263      0.45248640      1.09714231
    H      0.57531282      0.55732308      2.14763015
    H      1.83649426      0.88130789      0.96725514
    C      0.83875640     -1.02198717      0.62905450
    H      0.32375761     -1.66139757      1.34428521
    H      1.85544184     -1.40105178      0.53663134
    C      0.11249334     -1.02948461     -0.73539129
    H     -0.90754813     -1.39371006     -0.60843460
    H      0.60172001     -1.66975640     -1.46763206
    C      0.06330668      0.44025965     -1.16159038
    H     -0.71630380      0.64416212     -1.89458414
    H      1.02025480      0.73838019     -1.59692465
$end
   
$rem
mem_static = 200
mem_total  = 7500
exchange = b3lyp
basis = G3Large
max_scf_cycles = 50
scf_convergence = 7
symmetry = false
xc_grid = 000075000302
$end
