$molecule
0    1
    C     -0.42080526      0.75572211     -0.09912133
    H     -1.25646033      0.08582260     -0.31043709
    H     -0.80515149      1.77452770     -0.06398498
    C      0.27139352      0.33363444      1.19963228
    H     -0.43575176      0.04641889      1.97614653
    H      0.85925929      1.16819930      1.58450251
    C      1.20904860     -0.82758558      0.79274324
    H      0.83280073     -1.78313992      1.15465180
    H      2.20111538     -0.69252166      1.22104515
    C      1.25892238     -0.80744823     -0.75203302
    H      0.62103014     -1.59630681     -1.15210603
    H      2.26304783     -0.96703831     -1.14155879
    C      0.67170987      0.55063896     -1.14572558
    H      0.30244638      0.57289088     -2.17032204
    H      1.42886596      1.33202318     -1.04426206
$end
   
$rem
mem_static = 200
mem_total  = 7500
exchange = b3lyp
basis = G3Large
max_scf_cycles = 50
scf_convergence = 7
symmetry = false
xc_grid = 000075000302
$end
