$molecule
0    1
    C      1.73992968     -1.48274708      0.79007705
    C      0.66862808     -2.19872865      1.60877930
    H      0.94970840     -3.23680702      1.79410266
    H      0.52680208     -1.70936573      2.57377782
    H     -0.28657822     -2.19089461      1.08214208
    C      3.06176651     -1.50192114      1.55266250
    H      3.84401921     -0.99473492      0.98592953
    H      2.96162982     -0.99835698      2.51534687
    H      3.38919963     -2.52593721      1.73913038
    C      1.30967887     -0.03870121      0.54485261
    H      2.06145795      0.49470191     -0.03962905
    H      1.17865024      0.49143801      1.48987818
    H      0.36561771      0.00000000      0.00000000
    C      1.91390010     -2.19406313     -0.54946289
    H      0.97991145     -2.18596864     -1.11289765
    H      2.67759148     -1.70144649     -1.15355986
    H      2.21667688     -3.23213276     -0.40222765
$end
   
$rem
mem_static = 200
mem_total  = 7500
exchange = b3lyp
basis = G3Large
max_scf_cycles = 50
scf_convergence = 7
symmetry = false
xc_grid = 000075000302
$end
