$molecule
0    1
    C      2.62455074      0.36349311     -2.11273487
    H      1.81938264      0.82982468     -2.68230984
    H      3.24876915      1.16626913     -1.72047847
    H      3.23049006     -0.22341270     -2.80202123
    C      2.06284963     -0.48901230     -0.98223043
    H      2.88432803     -0.94312489     -0.42356056
    H      1.47764116     -1.31704765     -1.38889000
    C      1.19194630      0.31440315     -0.02523451
    H      1.78237407      1.12899697      0.40534513
    H      0.38330589      0.79462498     -0.58585264
    C      0.59888528     -0.52681449      1.09719319
    H      1.41195704     -0.98196241      1.66770377
    H      0.03257856     -1.35383121      0.66249479
    C     -0.29064612      0.28706182      2.02834781
    H     -1.12087362      0.73959042      1.48534538
    H     -0.70770630     -0.32821311      2.82442956
    H      0.27457589      1.09444161      2.49414815
$end
   
$rem
mem_static = 200
mem_total  = 7500
exchange = b3lyp
basis = G3Large
max_scf_cycles = 50
scf_convergence = 7
symmetry = false
xc_grid = 000075000302
$end
