$molecule
0    1
    C     -4.42224258      2.18689259     -0.00045294
    C     -4.66694966      3.02361973     -1.25325225
    H     -5.66498428      2.83996555     -1.65350106
    H     -4.58233510      4.08869591     -1.03203387
    H     -3.94150008      2.77882875     -2.03042515
    C     -5.45120636      2.54953295      1.06695365
    H     -5.29480422      1.96111235      1.97214959
    H     -5.38026355      3.60533631      1.33264592
    H     -6.46403635      2.35816386      0.70985042
    C     -3.02001714      2.47009199      0.53356778
    H     -2.82052015      1.87736925      1.42824117
    H     -2.91213311      3.52450096      0.79430156
    H     -2.26394029      2.23074149     -0.21677830
    C     -4.54926421      0.70524291     -0.34690800
    H     -3.84039568      0.42329805     -1.12724266
    H     -4.36126750      0.08690414      0.53295317
    H     -5.55333254      0.47947927     -0.70906744
$end
   
$rem
mem_static = 200
mem_total  = 7500
exchange = b3lyp
basis = G3Large
max_scf_cycles = 50
scf_convergence = 7
symmetry = false
xc_grid = 000075000302
$end
