$molecule
0    1
    C     -4.24266734     -2.18743502     -0.00045294
    C     -5.08964784     -1.98099400     -1.25325225
    H     -5.42961596     -2.93714443     -1.65350106
    H     -5.96972358     -1.37517756     -1.03203387
    H     -4.51492784     -1.47513173     -2.03042515
    C     -5.07120499     -2.89722362      1.06695365
    H     -4.48341674     -3.05598570      1.97214959
    H     -5.95008612     -2.30788366      1.33264592
    H     -5.41188949     -3.87004466      0.70985042
    C     -3.78681249     -0.83147247      0.53356778
    H     -3.17375104     -0.95506438      1.42824117
    H     -4.64601543     -0.21083767      0.79430156
    H     -3.20149045     -0.29636597     -0.21677830
    C     -3.02303189     -3.03826383     -0.34690800
    H     -2.42442621     -2.56533810     -1.12724266
    H     -2.39353645     -3.18462328      0.53295317
    H     -3.32954901     -4.02069433     -0.70906744
$end
   
$rem
mem_static = 200
mem_total  = 7500
exchange = b3lyp
basis = G3Large
max_scf_cycles = 50
scf_convergence = 7
symmetry = false
xc_grid = 000075000302
$end
