$molecule
0    1
    C     -4.51493043     -0.00031317     -2.18755606
    C     -4.43437456      0.60196025     -3.58765515
    H     -4.90325153     -0.05610625     -4.32052891
    H     -4.94271435      1.56665055     -3.62570429
    H     -3.39570333      0.75268983     -3.88538000
    C     -5.97738444     -0.20073930     -1.79936932
    H     -6.05788721     -0.63212542     -0.80061738
    H     -6.51419973      0.74908464     -1.80250476
    H     -6.47559007     -0.87288479     -2.49935577
    C     -3.85290065      0.94605742     -1.18869898
    H     -3.89395812      0.53249297     -0.17932368
    H     -4.35892699      1.91314439     -1.17978399
    H     -2.80702816      1.11681223     -1.45128924
    C     -3.79539599     -1.34697025     -2.17218451
    H     -2.75149155     -1.23670740     -2.47053886
    H     -3.82658050     -1.78846898     -1.17421272
    H     -4.26960899     -2.04452147     -2.86415721
$end
   
$rem
mem_static = 200
mem_total  = 7500
exchange = b3lyp
basis = G3Large
max_scf_cycles = 50
scf_convergence = 7
symmetry = false
xc_grid = 000075000302
$end
