$molecule
0    1
    C     -4.68967195      0.37239344     -0.33577462
    H     -3.95427666      0.80632830     -1.01387055
    H     -5.49687165     -0.03385887     -0.94524018
    H     -5.10266900      1.17618973      0.27211895
    C     -4.05530297     -0.71657525      0.51928639
    H     -4.79783174     -1.12573637      1.20830546
    H     -3.26285376     -0.28806177      1.13672250
    C     -3.46892557     -1.84471125     -0.31773185
    H     -4.26082925     -2.30208164     -0.91846876
    H     -2.74460479     -1.42691712     -1.02184392
    C     -2.78559472     -2.91623694      0.52014525
    H     -3.51149646     -3.35422629      1.20914309
    H     -2.01834527     -2.44406191      1.13752146
    C     -2.15966827     -4.01069931     -0.33414314
    H     -1.41592837     -3.59128376     -1.01226234
    H     -1.67038813     -4.76996883      0.27435549
    H     -2.91504148     -4.50681306     -0.94352027
$end
   
$rem
mem_static = 200
mem_total  = 7500
exchange = b3lyp
basis = G3Large
max_scf_cycles = 50
scf_convergence = 7
symmetry = false
xc_grid = 000075000302
$end
