$molecule
0    1
    C     -3.01321386      2.53033358     -2.10972907
    H     -1.93472012      2.53843455     -2.27005816
    H     -3.48979326      2.58210861     -3.08863253
    H     -3.27885442      3.43294011     -1.56116169
    C     -3.43650490      1.27007454     -1.36677686
    H     -4.51508298      1.28699500     -1.19388351
    H     -2.96533427      1.24495349     -0.38179256
    C     -3.06670994     -0.00010859     -2.11978106
    H     -3.55831644     -0.00025113     -3.09728143
    H     -1.99050316     -0.00044866     -2.31147137
    C     -3.43713459     -1.26974249     -1.36614869
    H     -4.51571477     -1.28610152     -1.19328107
    H     -2.96592783     -1.24445164     -0.38121269
    C     -3.01446166     -2.53053793     -2.10856563
    H     -1.93598488     -2.53918336     -2.26893137
    H     -3.28052422     -3.43272469     -1.55954322
    H     -3.49112657     -2.58249844     -3.08741633
$end
   
$rem
mem_static = 200
mem_total  = 7500
exchange = b3lyp
basis = G3Large
max_scf_cycles = 50
scf_convergence = 7
symmetry = false
xc_grid = 000075000302
$end
