$molecule
0    1
    C      0.32750836      2.53033358      0.28680767
    H     -0.75098538      2.53843455      0.44713676
    H      0.80408776      2.58210861      1.26571114
    H      0.59314892      3.43294011     -0.26175971
    C      0.75079940      1.27007454     -0.45614454
    H      1.82937748      1.28699500     -0.62903789
    H      0.27962877      1.24495349     -1.44112884
    C      0.38100445     -0.00010859      0.29685966
    H      0.87261094     -0.00025113      1.27436003
    H     -0.69520234     -0.00044866      0.48854997
    C      0.75142909     -1.26974249     -0.45677271
    H      1.83000927     -1.28610152     -0.62964033
    H      0.28022232     -1.24445164     -1.44170870
    C      0.32875616     -2.53053793      0.28564423
    H     -0.74972062     -2.53918336      0.44600997
    H      0.59481872     -3.43272469     -0.26337818
    H      0.80542107     -2.58249844      1.26449494
$end
   
$rem
mem_static = 200
mem_total  = 7500
exchange = b3lyp
basis = G3Large
max_scf_cycles = 50
scf_convergence = 7
symmetry = false
xc_grid = 000075000302
$end
