$molecule
0    1
    C     -3.27460400      0.25235297      4.26266942
    H     -2.54785477      1.04505454      4.08184343
    H     -4.19124725      0.72523414      4.61582439
    H     -2.89021723     -0.37423681      5.06602798
    C     -3.53142347     -0.55123362      2.99431781
    H     -4.26199171     -1.33658817      3.20183394
    H     -2.61699567     -1.05470600      2.67450846
    C     -4.04633573      0.31446680      1.85207242
    H     -4.94985204      0.84259386      2.17308494
    H     -3.30679492      1.08869079      1.62296603
    C     -4.34725323     -0.47783195      0.58706617
    H     -5.10301313     -1.23402652      0.81169687
    H     -3.44808339     -1.01843781      0.28555077
    C     -4.83384086      0.41034899     -0.55023649
    H     -4.08220088      1.16032632     -0.79957910
    H     -5.04796814     -0.16437866     -1.45068670
    H     -5.74483589      0.93888132     -0.26856680
$end
   
$rem
mem_static = 200
mem_total  = 7500
exchange = b3lyp
basis = G3Large
max_scf_cycles = 50
scf_convergence = 7
symmetry = false
xc_grid = 000075000302
$end
