$molecule
0    1
    C      0.82181443      0.50901897     -2.47350411
    H     -0.19789823      0.83562053     -2.68027881
    H      1.42577687      1.40375300     -2.32102366
    H      1.19468370      0.00077160     -3.36142641
    C      0.86700997     -0.39278924     -1.24666966
    H      1.89747055     -0.70470186     -1.06109978
    H      0.29444380     -1.30472030     -1.42692053
    C      0.32573720      0.29433153      0.00000000
    H      0.87831340      1.22319014      0.17375316
    H     -0.71523639      0.58732201     -0.17135845
    C      0.39981092     -0.57776979      1.24598630
    H      1.44199607     -0.84924218      1.42933035
    H     -0.13482353     -1.51067900      1.05752137
    C     -0.17180533      0.11779044      2.47421311
    H     -1.21849249      0.37948454      2.31433015
    H     -0.11375241     -0.51233103      3.36108950
    H      0.36914133      1.04040270      2.68577752
$end
   
$rem
mem_static = 200
mem_total  = 7500
exchange = b3lyp
basis = G3Large
max_scf_cycles = 50
scf_convergence = 7
symmetry = false
xc_grid = 000075000302
$end
