$molecule
0    1
    N     -5.52580995     -2.18909968     -2.85328510
    C     -4.46057482     -2.73528569     -2.24975201
    H     -4.43430974     -3.81790445     -2.22753177
    C     -3.42924392     -1.99706690     -1.67411408
    H     -2.59350517     -2.49260814     -1.19997163
    C     -3.49882716     -0.60809050     -1.72285671
    H     -2.71743553     -0.00000000     -1.28710026
    C     -4.59716221     -0.02371039     -2.34534029
    H     -4.69902492      1.05058054     -2.41013822
    C     -5.57607458     -0.85064579     -2.89080203
    H     -6.44197422     -0.42287268     -3.38128626
$end
   
$rem
mem_static = 200
mem_total  = 7500
exchange = b3lyp
basis = G3Large
max_scf_cycles = 50
scf_convergence = 7
symmetry = false
xc_grid = 000075000302
$end
