$molecule
0    1
    N      2.83481837     -2.18909968     -1.64903118
    C      1.77952582     -2.73528569     -1.02827703
    H      1.74714999     -3.81790445     -1.01664092
    C      0.76534330     -1.99706690     -0.42293724
    H     -0.06314549     -2.49260814      0.06376252
    C      0.84234727     -0.60809050     -0.45882678
    H      0.07427530      0.00000000      0.00000000
    C      1.93060139     -0.02371039     -1.09877104
    H      2.03764940      1.05058054     -1.15458778
    C      2.89244130     -0.85064579     -1.67380315
    H      3.75016293     -0.42287268     -2.17845212
$end
   
$rem
mem_static = 200
mem_total  = 7500
exchange = b3lyp
basis = G3Large
max_scf_cycles = 50
scf_convergence = 7
symmetry = false
xc_grid = 000075000302
$end
