$molecule
0    1
    N     -4.68802544     -4.79052420      0.04783135
    C     -3.35466859     -4.65139154      0.03788877
    H     -2.78403875     -5.57203872      0.04399952
    C     -2.70102128     -3.42158645      0.02074040
    H     -1.62113689     -3.37031666      0.01349043
    C     -3.46880308     -2.26101369      0.01331966
    H     -2.99811653     -1.28710026     -0.00000000
    C     -4.85428772     -2.38613959      0.02340059
    H     -5.49588855     -1.51608369      0.01821529
    C     -5.41119616     -3.66253359      0.04047305
    H     -6.48689335     -3.78963780      0.04865107
$end
   
$rem
mem_static = 200
mem_total  = 7500
exchange = b3lyp
basis = G3Large
max_scf_cycles = 50
scf_convergence = 7
symmetry = false
xc_grid = 000075000302
$end
