$molecule
0    1
    N      3.72132593     -0.28820793     -0.04783135
    C      2.93415509     -1.37336250     -0.03788877
    H      3.44614401     -2.32786602     -0.04399952
    C      1.54228898     -1.32453514     -0.02074040
    H      0.95794584     -2.23410755     -0.01349043
    C      0.92109439     -0.07933020     -0.01331966
    H     -0.15768266      0.00000000      0.00000000
    C      1.72219892      1.05797173     -0.02340059
    H      1.28950882      2.04864231     -0.01821529
    C      3.10604276      0.90207160     -0.04047305
    H      3.75396684      1.77010058     -0.04865107
$end
   
$rem
mem_static = 200
mem_total  = 7500
exchange = b3lyp
basis = G3Large
max_scf_cycles = 50
scf_convergence = 7
symmetry = false
xc_grid = 000075000302
$end
