$molecule
0    1
    N      3.17610177      1.62225711     -1.69318377
    C      2.18377633      2.36471874     -1.18276011
    H      2.30247277      3.43774756     -1.27176486
    C      1.05399244      1.83077098     -0.56838679
    H      0.28697189      2.48315660     -0.17556410
    C      0.93333226      0.44832243     -0.47090794
    H      0.06951763      0.00000000      0.00000000
    C      1.95513298     -0.33599957     -0.99620587
    H      1.91245425     -1.41509757     -0.94760515
    C      3.04593598      0.29237654     -1.59199786
    H      3.85494273     -0.29517142     -2.00862835
$end
   
$rem
mem_static = 200
mem_total  = 7500
exchange = b3lyp
basis = G3Large
max_scf_cycles = 50
scf_convergence = 7
symmetry = false
xc_grid = 000075000302
$end
