$molecule
0    1
    N      3.81680392     -0.36357047      0.08695191
    C      3.22277074      0.83671561      0.03282904
    H      3.88684766      1.69233756      0.01509689
    C      1.84242748      1.01710739      0.00000000
    H      1.42325767      2.01242522     -0.04331584
    C      1.01849850     -0.10351107      0.02408907
    H     -0.05743281      0.00000000      0.00000000
    C      1.62014871     -1.35653103      0.08006808
    H      1.02754594     -2.26042670      0.10081818
    C      3.01042451     -1.43362090      0.10949859
    H      3.50381189     -2.39692018      0.15318937
$end
   
$rem
mem_static = 200
mem_total  = 7500
exchange = b3lyp
basis = G3Large
max_scf_cycles = 50
scf_convergence = 7
symmetry = false
xc_grid = 000075000302
$end
