$molecule
0    1
    C     -3.58942131      0.00486071     -1.75473748
    H     -2.67073041      0.00000000     -1.21756214
    C     -4.63592304      0.01059668     -2.36715401
    H     -5.55197694      0.01564538     -2.90312365
$end
   
$rem
mem_static = 200
mem_total  = 7500
exchange = b3lyp
basis = G3Large
max_scf_cycles = 50
scf_convergence = 7
symmetry = false
xc_grid = 000075000302
$end
