$molecule
0    1
    C     -3.59790541     -1.74545130     -0.00586205
    H     -2.67385313     -1.21756214      0.00000000
    C     -4.65083383     -2.34673648     -0.01297945
    H     -5.57248027     -2.87301956     -0.01911582
$end
   
$rem
mem_static = 200
mem_total  = 7500
exchange = b3lyp
basis = G3Large
max_scf_cycles = 50
scf_convergence = 7
symmetry = false
xc_grid = 000075000302
$end
