$molecule
0    1
    C      0.98335666      0.53630816      0.00586205
    H      0.06416510      0.00000000      0.00000000
    C      2.03054912      1.14752834      0.01297945
    H      2.94714686      1.68255602      0.01911582
$end
   
$rem
mem_static = 200
mem_total  = 7500
exchange = b3lyp
basis = G3Large
max_scf_cycles = 50
scf_convergence = 7
symmetry = false
xc_grid = 000075000302
$end
