$molecule
0    1
    C      1.01235721      0.53206579      0.00385915
    H      0.09114011      0.00000000      0.00000000
    C      2.06190544      1.13833130      0.00840194
    H      2.98110711      1.66909382      0.01253572
$end
   
$rem
mem_static = 200
mem_total  = 7500
exchange = b3lyp
basis = G3Large
max_scf_cycles = 50
scf_convergence = 7
symmetry = false
xc_grid = 000075000302
$end
