$molecule
0    1
    C      1.01369493      0.00017395      0.53525728
    H      0.09432044      0.00000000      0.00000000
    C      2.06110537      0.00044116      1.14522554
    H      2.97826665      0.00049415      1.67952213
$end
   
$rem
mem_static = 200
mem_total  = 7500
exchange = b3lyp
basis = G3Large
max_scf_cycles = 50
scf_convergence = 7
symmetry = false
xc_grid = 000075000302
$end
