$molecule
0    1
    C     -0.15466311      0.00000000      0.00000000
    O     -0.67743034     -1.06912786      0.21922181
    O     -0.69324103      1.17910099      0.37718000
    H     -1.53035520      0.96689060      0.82597731
    C      1.14920709      0.20566963     -0.71289872
    H      1.56988410     -0.75517816     -0.98380950
    H      0.98558236      0.80782596     -1.60368828
    H      1.83640047      0.75088307     -0.07036941
$end
   
$rem
mem_static = 200
mem_total  = 7500
exchange = b3lyp
basis = G3Large
max_scf_cycles = 50
scf_convergence = 7
symmetry = false
xc_grid = 000075000302
$end
