$molecule
0    1
    C      0.20036230      0.00000000      0.00000000
    O     -0.82120287     -0.64472158     -0.07153196
    O      0.22265563      1.34863749      0.05735850
    H     -0.70562013      1.63953829      0.02747129
    C      1.58979397     -0.56470192      0.03454670
    H      1.54218564     -1.64670670      0.01026958
    H      2.15387678     -0.19506504     -0.81871205
    H      2.09957237     -0.22946436      0.93459009
$end
   
$rem
mem_static = 200
mem_total  = 7500
exchange = b3lyp
basis = G3Large
max_scf_cycles = 50
scf_convergence = 7
symmetry = false
xc_grid = 000075000302
$end
