$molecule
0    1
    C     -3.74802182      0.00000000     -1.93546777
    O     -3.29678655     -1.06912786     -1.59234898
    O     -3.15208540      1.17910099     -1.65763561
    H     -2.34485844      0.96689060     -1.15707213
    C     -5.01734532      0.20566963     -2.70820313
    H     -5.46229945     -0.75517816     -2.93706471
    H     -5.70697935      0.80782596     -2.12110518
    H     -4.80449531      0.75088307     -3.62459470
$end
   
$rem
mem_static = 200
mem_total  = 7500
exchange = b3lyp
basis = G3Large
max_scf_cycles = 50
scf_convergence = 7
symmetry = false
xc_grid = 000075000302
$end
