$molecule
0    1
    C     -3.18089147     -1.86992153     -1.69209331
    O     -2.29054760     -2.49702992     -1.13678423
    N     -3.23751888     -0.51079850     -1.68305722
    H     -2.49053558      0.00000000     -1.24135327
    H     -3.94929943     -0.01278305     -2.18025200
    C     -4.29419243     -2.55844684     -2.44796597
    H     -3.87687213     -2.99795665     -3.35155570
    H     -5.10774078     -1.89121655     -2.72145005
    H     -4.67854070     -3.36762522     -1.83399771
$end
   
$rem
mem_static = 200
mem_total  = 7500
exchange = b3lyp
basis = G3Large
max_scf_cycles = 50
scf_convergence = 7
symmetry = false
xc_grid = 000075000302
$end
