$molecule
0    1
    C      1.15661358     -2.03101743      0.04517438
    O     -0.06515439     -2.04975175      0.00943454
    N      1.87473292     -0.87624372      0.00903520
    H      1.37863128      0.00000000      0.00000000
    H      2.87286772     -0.87745841      0.08372823
    C      1.97462912     -3.29833946      0.14312882
    H      1.83314982     -3.72415856      1.13432064
    H      3.03682761     -3.14114886     -0.02680118
    H      1.59244508     -4.01204411     -0.58075742
$end
   
$rem
mem_static = 200
mem_total  = 7500
exchange = b3lyp
basis = G3Large
max_scf_cycles = 50
scf_convergence = 7
symmetry = false
xc_grid = 000075000302
$end
