$molecule
0    1
    O      0.02716062     -0.03843219      0.02746009
    H     -0.02341147      0.91877682     -0.00173772
    H     -0.77236524     -0.30872868     -0.43414638
$end
   
$rem
mem_static = 200
mem_total  = 7500
exchange = b3lyp
basis = G3Large
max_scf_cycles = 50
scf_convergence = 7
symmetry = false
xc_grid = 000075000302
$end
