$molecule
0    1
    O     -3.41543248     -0.03843219      1.71637188
    H     -3.36486038      0.91877682      1.68717407
    H     -2.61590662     -0.30872868      1.25476541
$end
   
$rem
mem_static = 200
mem_total  = 7500
exchange = b3lyp
basis = G3Large
max_scf_cycles = 50
scf_convergence = 7
symmetry = false
xc_grid = 000075000302
$end
