$molecule
0    1
    O     -3.53915758     -1.74965513      0.00000000
    H     -3.96718998     -0.89149000      0.00000000
    H     -2.60448347     -1.52213229      0.00000000
$end
   
$rem
mem_static = 200
mem_total  = 7500
exchange = b3lyp
basis = G3Large
max_scf_cycles = 50
scf_convergence = 7
symmetry = false
xc_grid = 000075000302
$end
