$molecule
0    1
    O     -3.25598157      0.66987623      1.64760879
    H     -2.42163452      0.67883077      1.16812484
    C     -3.62035123     -0.68577430      1.82424395
    H     -4.56175012     -0.69527342      2.36690597
    H     -3.76704979     -1.20363323      0.87359117
    H     -2.88251858     -1.24136869      2.40765108
$end
   
$rem
mem_static = 200
mem_total  = 7500
exchange = b3lyp
basis = G3Large
max_scf_cycles = 50
scf_convergence = 7
symmetry = false
xc_grid = 000075000302
$end
