$molecule
0    1
    O     -0.10927552      0.66987623      0.07331481
    H     -0.94362258      0.67883077      0.55279876
    C      0.25509413     -0.68577430     -0.10332034
    H      1.19649302     -0.69527342     -0.64598237
    H      0.40179269     -1.20363323      0.84733244
    H     -0.48273852     -1.24136869     -0.68672748
$end
   
$rem
mem_static = 200
mem_total  = 7500
exchange = b3lyp
basis = G3Large
max_scf_cycles = 50
scf_convergence = 7
symmetry = false
xc_grid = 000075000302
$end
