$molecule
0    1
    O     -3.65735346     -1.05502770      0.01437748
    H     -2.82844779     -0.56611897      0.01630572
    C     -3.32929070     -2.43099097     -0.01483682
    H     -4.26556986     -2.98252064     -0.01557717
    H     -2.76874042     -2.70532911     -0.91147556
    H     -2.75074172     -2.73851071      0.85932490
$end
   
$rem
mem_static = 200
mem_total  = 7500
exchange = b3lyp
basis = G3Large
max_scf_cycles = 50
scf_convergence = 7
symmetry = false
xc_grid = 000075000302
$end
