$molecule
0    1
    N     -3.28172658     -0.66319376      1.87958965
    H     -2.42811431     -0.70262825      1.33552640
    H     -2.99137879     -0.76258740      2.84378848
    C     -3.90169493      0.64752485      1.69676785
    H     -4.80866176      0.70456222      2.29582517
    H     -3.26795102      1.50161810      1.95675386
    H     -4.19565538      0.75908083      0.65494688
$end
   
$rem
mem_static = 200
mem_total  = 7500
exchange = b3lyp
basis = G3Large
max_scf_cycles = 50
scf_convergence = 7
symmetry = false
xc_grid = 000075000302
$end
