$molecule
0    1
    N      0.06381977     -0.66319376     -0.28410174
    H     -0.83415897     -0.70262825     -0.75132002
    H      0.75366655     -0.76258740     -1.01764972
    C      0.21547562      0.64752485      0.34421750
    H      1.18775789      0.70456222      0.83014515
    H      0.12375815      1.50161810     -0.33461384
    H     -0.53978759      0.75908083      1.11970520
$end
   
$rem
mem_static = 200
mem_total  = 7500
exchange = b3lyp
basis = G3Large
max_scf_cycles = 50
scf_convergence = 7
symmetry = false
xc_grid = 000075000302
$end
