$molecule
0    1
    N     -3.17229058     -2.27148177      0.21067572
    H     -2.27677783     -1.79999227      0.16630925
    H     -3.32234326     -2.47288461      1.19087030
    C     -4.21346199     -1.35911487     -0.25763678
    H     -5.18160522     -1.85221156     -0.19232134
    H     -4.27777792     -0.41002576      0.28438967
    H     -4.03858860     -1.12933793     -1.30686043
$end
   
$rem
mem_static = 200
mem_total  = 7500
exchange = b3lyp
basis = G3Large
max_scf_cycles = 50
scf_convergence = 7
symmetry = false
xc_grid = 000075000302
$end
