$molecule
0    1
    C     -3.91944101      1.97080240     -1.97650932
    H     -2.85136838      2.07868421     -1.80307563
    H     -4.46281471      2.59090886     -1.26667912
    H     -4.16384387      2.32349981     -2.97528827
    C     -4.40530799      0.54569299     -1.83921051
    O     -5.56355791      0.23256512     -2.08790487
    N     -3.46299714     -0.34257880     -1.42680256
    H     -2.54869614     -0.00000000     -1.18510939
    C     -3.77588787     -1.73325733     -1.19655785
    H     -4.75384524     -1.92178594     -1.62888190
    H     -3.03713057     -2.37479907     -1.67284637
    H     -3.80955848     -1.96650142     -0.13206432
$end
   
$rem
mem_static = 200
mem_total  = 7500
exchange = b3lyp
basis = G3Large
max_scf_cycles = 50
scf_convergence = 7
symmetry = false
xc_grid = 000075000302
$end
