$molecule
0    1
    N     -2.55706393     -2.27064280      0.00810806
    C     -3.27144493     -3.40450752      0.02016120
    H     -2.70067504     -4.32510876      0.02556260
    C     -4.66297879     -3.44228278      0.02583604
    H     -5.17919657     -4.39172808      0.03570293
    C     -5.36246153     -2.24002160      0.01857360
    H     -6.44367926     -2.22799426      0.02264139
    C     -4.63517316     -1.05470823      0.00600834
    H     -5.13065377     -0.09428969      0.00000000
    C     -3.24351637     -1.11663556      0.00124899
    H     -2.65056667     -0.20914824     -0.00810806
$end
   
$rem
mem_static = 200
mem_total  = 7500
exchange = b3lyp
basis = G3Large
max_scf_cycles = 50
scf_convergence = 7
symmetry = false
xc_grid = 000075000302
$end
