$molecule
0    1
    O      0.02256827      0.00000000      0.00000000
    H      0.52261793      0.76600951      0.28870381
    H      0.40107378     -0.72502191      0.50118224
$end
   
$rem
mem_static = 200
mem_total  = 7500
exchange = b3lyp
basis = G3Large
max_scf_cycles = 50
scf_convergence = 7
symmetry = false
xc_grid = 000075000302
$end
