$molecule
0    1
    O     -2.08016470     -1.11610625      0.00000000
    H     -2.96321912     -0.74142636      0.00000000
    H     -2.21855115     -2.03318689     -0.24478380
$end
   
$rem
mem_static = 200
mem_total  = 7500
exchange = b3lyp
basis = G3Large
max_scf_cycles = 50
scf_convergence = 7
symmetry = false
xc_grid = 000075000302
$end
