$molecule
0    1
    O      0.02935847      0.00000000      0.00000000
    H      0.14640338      0.95208750      0.00000000
    H      0.89276683     -0.33869414      0.24478380
$end
   
$rem
mem_static = 200
mem_total  = 7500
exchange = b3lyp
basis = G3Large
max_scf_cycles = 50
scf_convergence = 7
symmetry = false
xc_grid = 000075000302
$end
