$molecule
0    1
    O      0.00240055      0.00000000      0.00000000
    H      0.50245022      0.76600951     -0.28870381
    H      0.62568986     -0.72502191     -0.07720427
$end
   
$rem
mem_static = 200
mem_total  = 7500
exchange = b3lyp
basis = G3Large
max_scf_cycles = 50
scf_convergence = 7
symmetry = false
xc_grid = 000075000302
$end
