$molecule
0    1
    C     -3.10070279     -2.98107584     -0.00305500
    O     -1.95548967     -3.37553445     -0.00162922
    O     -3.43277535     -1.67336017     -0.00179691
    H     -2.59866208     -1.17118320     -0.00000000
    C     -4.32130165     -3.85107555     -0.00630997
    H     -4.02440397     -4.89281508     -0.01008932
    H     -4.92511629     -3.63490369      0.87188336
    H     -4.92538447     -3.62830175     -0.88261870
$end
   
$rem
mem_static = 200
mem_total  = 7500
exchange = b3lyp
basis = G3Large
max_scf_cycles = 50
scf_convergence = 7
symmetry = false
xc_grid = 000075000302
$end
