$molecule
0    1
    C     -3.65601664      1.99538365      0.01482059
    O     -3.03160769      2.96293286      0.38232338
    O     -4.45145578      1.27998262      0.84733427
    H     -4.37504402      1.71290731      1.71066418
    C     -3.66486291      1.42170981     -1.36840448
    H     -3.04598290      2.03040588     -2.01675552
    H     -3.28593065      0.40240457     -1.33910868
    H     -4.68459743      1.38402712     -1.74418278
$end
   
$rem
mem_static = 200
mem_total  = 7500
exchange = b3lyp
basis = G3Large
max_scf_cycles = 50
scf_convergence = 7
symmetry = false
xc_grid = 000075000302
$end
