$molecule
0    1
    C      0.24386229      0.10693490     -0.00893754
    O      0.01076527      1.25706157     -0.29871459
    O      0.11440707     -0.91034013     -0.89550053
    H     -0.18710482     -0.49721047     -1.71831008
    C      0.69370146     -0.39430436      1.32855842
    H      0.81729011      0.44228191      2.00585578
    H     -0.04651774     -1.08758245      1.72209630
    H      1.63007442     -0.93680578      1.22185465
$end
   
$rem
mem_static = 200
mem_total  = 7500
exchange = b3lyp
basis = G3Large
max_scf_cycles = 50
scf_convergence = 7
symmetry = false
xc_grid = 000075000302
$end
