$molecule
0    1
    C     -3.60867605      1.73205520     -0.01526672
    O     -4.00210656      0.57645201     -0.02466833
    N     -3.32169495      2.41430830     -1.16016959
    H     -3.34734251      1.90861019     -2.02786899
    H     -2.89692674      3.32079394     -1.13819118
    C     -3.39739946      2.50432322      1.26520152
    H     -3.29410785      3.57524162      1.10892334
    H     -2.49742909      2.12800296      1.74874102
    H     -4.23564042      2.31132344      1.92781804
$end
   
$rem
mem_static = 200
mem_total  = 7500
exchange = b3lyp
basis = G3Large
max_scf_cycles = 50
scf_convergence = 7
symmetry = false
xc_grid = 000075000302
$end
