$molecule
0    1
    C      0.30732090     -0.08401872      0.01526672
    O      0.70075140     -1.23962192      0.02466833
    N      0.02033979      0.59823437      1.16016959
    H      0.04598736      0.09253626      2.02786899
    H     -0.40442842      1.50472001      1.13819118
    C      0.09604430      0.68824930     -1.26520152
    H     -0.00724730      1.75916770     -1.10892334
    H     -0.80392606      0.31192904     -1.74874102
    H      0.93428526      0.49524951     -1.92781804
$end
   
$rem
mem_static = 200
mem_total  = 7500
exchange = b3lyp
basis = G3Large
max_scf_cycles = 50
scf_convergence = 7
symmetry = false
xc_grid = 000075000302
$end
