$molecule
0    1
    C     -3.63184037     -1.88811922     -0.01526672
    O     -2.82777390     -2.80664164     -0.02466833
    N     -4.07919833     -1.29845975     -1.16016959
    H     -3.65407471     -1.57352025     -2.02786899
    H     -4.65185382     -0.47735687     -1.13819118
    C     -4.19500580     -1.31901431      1.26520152
    H     -5.07080254     -0.69410196      1.10892334
    H     -3.41911771     -0.72777725      1.74874102
    H     -4.44698357     -2.14145217      1.92781804
$end
   
$rem
mem_static = 200
mem_total  = 7500
exchange = b3lyp
basis = G3Large
max_scf_cycles = 50
scf_convergence = 7
symmetry = false
xc_grid = 000075000302
$end
