$molecule
0    1
    C     -4.22535997     -0.54865432     -0.54654135
    O     -4.35597386     -0.26053030     -1.71352970
    O     -4.73916535      0.21613076      0.45055827
    H     -5.17664892      0.95412747      0.00113400
    C     -3.50258461     -1.73851361      0.00000000
    H     -3.19890890     -2.38274190     -0.81636126
    H     -2.62363585     -1.39777851      0.54549414
    H     -4.14399518     -2.27543023      0.69468716
$end
   
$rem
mem_static = 200
mem_total  = 7500
exchange = b3lyp
basis = G3Large
max_scf_cycles = 50
scf_convergence = 7
symmetry = false
xc_grid = 000075000302
$end
