$molecule
0    1
    C     -0.21138008      0.44269701     -0.37449051
    H      0.09167959      0.66300178     -1.38843224
    H     -1.06825228      0.97355894      0.01661115
    C      0.44492023     -0.44360219      0.37431609
    H      1.30487510     -0.97162163     -0.01341196
    H      0.13217723     -0.65415283      1.38731144
$end
   
$rem
mem_static = 200
mem_total  = 7500
exchange = b3lyp
basis = G3Large
max_scf_cycles = 50
scf_convergence = 7
symmetry = false
xc_grid = 000075000302
$end
