$molecule
0    1
    C     -0.00051903      0.33501899     -0.48827479
    H      0.55567298      0.91052264     -1.21484426
    H     -1.07795612      0.32594695     -0.57800692
    C      0.61061304     -0.33555391      0.48836090
    H      1.68748008     -0.32352876      0.58255600
    H      0.04269125     -0.90656665      1.20926911
$end
   
$rem
mem_static = 200
mem_total  = 7500
exchange = b3lyp
basis = G3Large
max_scf_cycles = 50
scf_convergence = 7
symmetry = false
xc_grid = 000075000302
$end
