$molecule
0    1
    C      0.35245673      0.43175472     -0.48827479
    H      1.12895352      0.23783013     -1.21484426
    H     -0.19411843      1.36030659     -0.57800692
    C      0.07728960     -0.43278763      0.48836090
    H      0.62613720     -1.35936926      0.58255600
    H     -0.70118283     -0.22645929      1.20926911
$end
   
$rem
mem_static = 200
mem_total  = 7500
exchange = b3lyp
basis = G3Large
max_scf_cycles = 50
scf_convergence = 7
symmetry = false
xc_grid = 000075000302
$end
