$molecule
0    1
    C      2.07620890      1.13648610     -0.06156253
    H      2.99661448      1.66408479     -0.09101013
    C      1.02390371      0.53315920     -0.02801087
    H      0.09541698     -0.00000000     -0.00000000
$end
   
$rem
mem_static = 200
mem_total  = 7500
exchange = b3lyp
basis = G3Large
max_scf_cycles = 50
scf_convergence = 7
symmetry = false
xc_grid = 000075000302
$end
