$molecule
0    1
    C     -4.04115439      2.26296972      0.06156253
    H     -4.96155998      2.79056841      0.09101013
    C     -2.98884921      1.65964282      0.02801087
    H     -2.06036247      1.12648362     -0.00000000
$end
   
$rem
mem_static = 200
mem_total  = 7500
exchange = b3lyp
basis = G3Large
max_scf_cycles = 50
scf_convergence = 7
symmetry = false
xc_grid = 000075000302
$end
