$molecule
0    1
    N     -2.23545484     -1.17846755      0.00000000
    C     -1.73179352     -2.24665412      0.63506446
    H     -0.83380203     -2.67272085      0.20635941
    C     -2.29039675     -2.79199579      1.78764784
    H     -1.83413571     -3.65353298      2.25379506
    C     -3.43241466     -2.20349469      2.32103373
    H     -3.89227624     -2.59735767      3.21674178
    C     -3.96675843     -1.09445136      1.67365913
    H     -4.85207450     -0.59980149      2.04702824
    C     -3.33684474     -0.62373315      0.52476786
    H     -3.72983073      0.23836115      0.00000000
$end
   
$rem
mem_static = 200
mem_total  = 7500
exchange = b3lyp
basis = G3Large
max_scf_cycles = 50
scf_convergence = 7
symmetry = false
xc_grid = 000075000302
$end
