$molecule
0    1
    B      0.00000000      0.00000000      0.00000000
   Cl     -0.87465457      1.51494616      0.00000000
   Cl     -0.87465457     -1.51494616      0.00000000
   Cl      1.74930915      0.00000000      0.00000000
$end
   
$rem
mem_static = 200
mem_total  = 7500
exchange = b3lyp
basis = G3Large
max_scf_cycles = 50
scf_convergence = 7
symmetry = false
xc_grid = 000075000302
$end
