$molecule
0    1
    P     -0.62625792     -0.04783460      0.14053034
    B      2.97904786     -0.01063002      0.25913592
    C     -1.14199457      1.66035514      0.37842210
    C     -0.53761838     -0.45119298     -1.60467119
    C     -1.81646497     -1.15101055      0.93576275
    H     -2.10597687      1.83149547     -0.10349602
    H     -1.22399998      1.87122145      1.44557745
    H     -0.37616730      2.30147316     -0.05849637
    H     -2.79772535     -1.04924475      0.46985353
    H     -1.46926308     -2.17959316      0.82705412
    H     -1.89259793     -0.91078798      1.99704110
    H     -1.51642659     -0.28094574     -2.05846221
    H     -0.23643868     -1.49256897     -1.70890156
    H      0.22527657      0.17745438     -2.06212646
   Cl      2.23017403      1.45927386     -0.76119831
   Cl      2.43208912     -1.65393041     -0.55614879
   Cl      4.80344765      0.12507405      0.33503350
    H      0.59507866     -0.24112594      0.77633422
    H      2.47581774      0.04251758      1.34875589
$end
   
$rem
mem_static = 200
mem_total  = 7500
exchange = b3lyp
basis = G3Large
max_scf_cycles = 50
scf_convergence = 7
symmetry = false
xc_grid = 000075000302
$end
