$molecule
0    1
    P     -1.21420863     -0.00811450      0.01287494
    B      1.49607719      0.00386146     -0.01331641
    H     -2.57365792      0.16389897     -0.42193703
    H     -0.67739406      1.10909381     -0.62356641
    H     -1.04259536     -1.28787369     -0.51120135
    H     -1.49693569      0.09056234      1.37898818
    H      1.57532352      1.20628199      0.09582044
    H      2.28446816     -0.65551204      0.61330659
    H      1.27970741     -0.37120790     -1.14650381
    H      0.36921539     -0.25099043      0.61553486
$end
   
$rem
mem_static = 200
mem_total  = 7500
exchange = b3lyp
basis = G3Large
max_scf_cycles = 50
scf_convergence = 7
symmetry = false
xc_grid = 000075000302
$end
