$molecule
0    1
    N      0.00000000      0.00000000     -0.80275694
    B      0.00000000      0.00000000      0.83492975
    H      0.47331758      0.81981009     -1.16551928
    H      0.47331758     -0.81981009     -1.16551928
    H     -0.94663515      0.00000000     -1.16551928
    H      1.16843048      0.00000000      1.15479501
    H     -0.58421524      1.01189048      1.15479501
    H     -0.58421524     -1.01189048      1.15479501
$end
   
$rem
mem_static = 200
mem_total  = 7500
exchange = b3lyp
basis = G3Large
max_scf_cycles = 50
scf_convergence = 7
symmetry = false
xc_grid = 000075000302
$end
