$molecule
0    1
   Al      0.00000000      0.00000000      1.59543840
   Al      0.00000000      0.00000000     -1.59543840
   Cl      0.00000000      1.62307927      0.00000000
   Cl      0.00000000     -1.62307927      0.00000000
   Cl     -1.82122821      0.00000000      2.60429362
   Cl      1.82122821      0.00000000      2.60429362
   Cl      1.82122821      0.00000000     -2.60429362
   Cl     -1.82122821      0.00000000     -2.60429362
$end
   
$rem
mem_static = 200
mem_total  = 7500
exchange = b3lyp
basis = G3Large
max_scf_cycles = 50
scf_convergence = 7
symmetry = false
xc_grid = 000075000302
$end
