$molecule
0    1
    C      0.00000000      2.41233328      1.62084507
   Al      0.00000000      1.30756554     -0.00944267
    C      0.00000000      2.05852516     -1.83323416
    C      1.69230825      0.00000000      0.22299558
   Al      0.00000000     -1.30756554     -0.00944267
    C      0.00000000     -2.41233328      1.62084507
    C     -1.69230825      0.00000000      0.22299558
    C      0.00000000     -2.05852516     -1.83323416
    H     -0.87649894     -2.68848006     -2.00708612
    H      0.00000000     -1.28808741     -2.60730920
    H      0.87649894     -2.68848006     -2.00708612
    H     -0.87716984     -3.06285183      1.66447426
    H      0.87716984     -3.06285183      1.66447426
    H      0.00000000     -1.80746237      2.53042801
    H     -0.87649894      2.68848006     -2.00708612
    H      0.87649894      2.68848006     -2.00708612
    H      0.00000000      1.28808741     -2.60730920
    H     -0.87716984      3.06285183      1.66447426
    H      0.00000000      1.80746237      2.53042801
    H      0.87716984      3.06285183      1.66447426
    H     -1.98499268      0.00000000      1.27297975
    H     -2.19790288     -0.84782525     -0.25601933
    H     -2.19790288      0.84782525     -0.25601933
    H      1.98499268      0.00000000      1.27297975
    H      2.19790288      0.84782525     -0.25601933
    H      2.19790288     -0.84782525     -0.25601933
$end
   
$rem
mem_static = 200
mem_total  = 7500
exchange = b3lyp
basis = G3Large
max_scf_cycles = 50
scf_convergence = 7
symmetry = false
xc_grid = 000075000302
$end
