$molecule
0    1
    C      0.00000000      0.00000000      0.76325794
    C      0.00000000      0.00000000     -0.76325794
    H     -0.88068553      0.50846403      1.15784282
    H      0.00000000     -1.01692806      1.15784282
    H      0.88068553      0.50846403      1.15784282
    H      0.88068553     -0.50846403     -1.15784282
    H     -0.88068553     -0.50846403     -1.15784282
    H      0.00000000      1.01692806     -1.15784282
$end
   
$rem
mem_static = 200
mem_total  = 7500
exchange = b3lyp
basis = G3Large
max_scf_cycles = 50
scf_convergence = 7
symmetry = false
xc_grid = 000075000302
$end
