$molecule
0    2
    C     -0.67797747      0.01592403      0.00000000
    H     -1.17993601     -0.20967344      0.92885427
    H     -1.17993601     -0.20967344     -0.92885427
    N      0.71360982     -0.10337667      0.00000000
    H      1.16211984      0.25339976     -0.82868588
    H      1.16211984      0.25339976      0.82868588
$end
   
$rem
mem_static = 200
mem_total  = 7500
exchange = b3lyp
basis = G3Large
max_scf_cycles = 50
scf_convergence = 7
symmetry = false
xc_grid = 000075000302
$end
