$molecule
0    1
    C     -0.56458370      0.09903004      0.00000000
    N      0.89804094      0.18569810      0.00000000
    H     -0.96701239     -0.92007218      0.00000000
    H     -0.95220072      0.61587684     -0.87762982
    H     -0.95220072      0.61587684      0.87762982
    H      1.26897829     -0.29820482      0.80759322
    H      1.26897829     -0.29820482     -0.80759322
$end
   
$rem
mem_static = 200
mem_total  = 7500
exchange = b3lyp
basis = G3Large
max_scf_cycles = 50
scf_convergence = 7
symmetry = false
xc_grid = 000075000302
$end
