$molecule
0    2
    O     -1.10986551     -0.64246787      0.00000000
    O      0.09113440     -0.64246787      0.00000000
   Cl      1.01873111      1.28493574      0.00000000
$end
   
$rem
mem_static = 200
mem_total  = 7500
exchange = b3lyp
basis = G3Large
max_scf_cycles = 50
scf_convergence = 7
symmetry = false
xc_grid = 000075000302
$end
