$molecule
0    1
    F     -1.10077105      0.00000000      0.29135325
    O      0.00000000      0.00000000     -0.58270650
    F      1.10077105      0.00000000      0.29135325
$end
   
$rem
mem_static = 200
mem_total  = 7500
exchange = b3lyp
basis = G3Large
max_scf_cycles = 50
scf_convergence = 7
symmetry = false
xc_grid = 000075000302
$end
