$molecule
0    1
    H     -0.95317511     -0.71301474     -0.26359470
    O     -0.72382786      0.05914931      0.26359470
    O      0.72382786     -0.05914931      0.26359470
    H      0.95317511      0.71301474     -0.26359470
$end
   
$rem
mem_static = 200
mem_total  = 7500
exchange = b3lyp
basis = G3Large
max_scf_cycles = 50
scf_convergence = 7
symmetry = false
xc_grid = 000075000302
$end
