$molecule
0    2
    O      1.02482161     -0.19503552      0.00000000
    C     -0.14635986     -0.32605220      0.00000000
    H     -0.87846175      0.52108772      0.00000000
$end
   
$rem
mem_static = 200
mem_total  = 7500
exchange = b3lyp
basis = G3Large
max_scf_cycles = 50
scf_convergence = 7
symmetry = false
xc_grid = 000075000302
$end
