$molecule
0    1
    O     -0.48169163      0.33261815      0.00000000
    H     -0.72950729     -0.59888090      0.00000000
   Cl      1.21119892      0.26626275      0.00000000
$end
   
$rem
mem_static = 200
mem_total  = 7500
exchange = b3lyp
basis = G3Large
max_scf_cycles = 50
scf_convergence = 7
symmetry = false
xc_grid = 000075000302
$end
