$molecule
0    1
    H      0.59534198      0.61063192      0.00000000
    O      0.41888580     -0.33960924      0.00000000
    F     -1.01422778     -0.27102268      0.00000000
$end
   
$rem
mem_static = 200
mem_total  = 7500
exchange = b3lyp
basis = G3Large
max_scf_cycles = 50
scf_convergence = 7
symmetry = false
xc_grid = 000075000302
$end
