$molecule
0    2
    O      0.98306959     -0.25632496      0.00000000
    O     -0.34491731     -0.33432991      0.00000000
    H     -0.63815228      0.59065487      0.00000000
$end
   
$rem
mem_static = 200
mem_total  = 7500
exchange = b3lyp
basis = G3Large
max_scf_cycles = 50
scf_convergence = 7
symmetry = false
xc_grid = 000075000302
$end
