$molecule
0    2
    H      0.76230219      0.55589647      0.00000000
    N      0.20572024     -0.33437190      0.00000000
    N     -0.96802242     -0.22152457      0.00000000
$end
   
$rem
mem_static = 200
mem_total  = 7500
exchange = b3lyp
basis = G3Large
max_scf_cycles = 50
scf_convergence = 7
symmetry = false
xc_grid = 000075000302
$end
