$molecule
0    1
    H      1.05921401      0.82708186      0.00000000
    N      0.61625766     -0.10229432      0.00000000
    N     -0.61625766      0.10229432      0.00000000
    H     -1.05921401     -0.82708186      0.00000000
$end
   
$rem
mem_static = 200
mem_total  = 7500
exchange = b3lyp
basis = G3Large
max_scf_cycles = 50
scf_convergence = 7
symmetry = false
xc_grid = 000075000302
$end
