$molecule
0    1
    N      0.00000000      0.00000000      0.29167748
    H     -0.46736195     -0.80949464     -0.09722583
    H     -0.46736195      0.80949464     -0.09722583
    H      0.93472389      0.00000000     -0.09722583
$end
   
$rem
mem_static = 200
mem_total  = 7500
exchange = b3lyp
basis = G3Large
max_scf_cycles = 50
scf_convergence = 7
symmetry = false
xc_grid = 000075000302
$end
