$molecule
0    2
   Cl      0.00000000      0.00000000      0.50949292
    O      1.25908175      0.00000000     -0.25474646
    O     -1.25908175      0.00000000     -0.25474646
$end
   
$rem
mem_static = 200
mem_total  = 7500
exchange = b3lyp
basis = G3Large
max_scf_cycles = 50
scf_convergence = 7
symmetry = false
xc_grid = 000075000302
$end
