$molecule
0    1
    S      1.54823333      0.07201852      0.00000000
    S     -0.24270008     -0.53644750      0.00000000
    O     -1.30553325      0.46442898      0.00000000
$end
   
$rem
mem_static = 200
mem_total  = 7500
exchange = b3lyp
basis = G3Large
max_scf_cycles = 50
scf_convergence = 7
symmetry = false
xc_grid = 000075000302
$end
