$molecule
0    1
    O     -1.33050646      0.99907413      0.00000000
    H     -1.06354548      1.92108714      0.00000000
    H     -0.50513258      0.49194213      0.00000000
    O      1.00521436     -0.75126820      0.00000000
    H      0.94698508     -1.33041760     -0.76557518
    H      0.94698508     -1.33041760      0.76557518
$end
   
$rem
mem_static = 200
mem_total  = 7500
exchange = b3lyp
basis = G3Large
max_scf_cycles = 50
scf_convergence = 7
symmetry = false
xc_grid = 000075000302
$end
