$molecule
0    1
    O      1.18470288      1.11507922     -0.03446405
    H      0.49390880      0.95637665      0.63400887
    H      2.02426762      1.08112458      0.43014166
    O     -1.14694434      0.06976488      1.14701964
    H     -1.27983077     -0.52321688      1.89028335
    H     -1.06413984     -0.49566935      0.35692503
    O     -0.16335078     -1.02893461     -1.24018077
    H      0.49147712     -0.32487331     -1.07848381
    H     -0.54009071     -0.84965119     -2.10524992
$end
   
$rem
mem_static = 200
mem_total  = 7500
exchange = b3lyp
basis = G3Large
max_scf_cycles = 50
scf_convergence = 7
symmetry = false
xc_grid = 000075000302
$end
