$molecule
0    1
    O     -1.45649242      1.28720932     -0.00736890
    H     -0.49296699      1.47969275     -0.00986060
    H     -1.81941989      1.74937312      0.75214359
    O     -1.28720932     -1.45649242      0.00736890
    H     -1.47969275     -0.49296699      0.00986060
    H     -1.74937312     -1.81941989     -0.75214359
    O      1.45649242     -1.28720932     -0.00736890
    H      0.49296699     -1.47969275     -0.00986060
    H      1.81941989     -1.74937312      0.75214359
    O      1.28720932      1.45649242      0.00736890
    H      1.47969275      0.49296699      0.00986060
    H      1.74937312      1.81941989     -0.75214359
$end
   
$rem
mem_static = 200
mem_total  = 7500
exchange = b3lyp
basis = G3Large
max_scf_cycles = 50
scf_convergence = 7
symmetry = false
xc_grid = 000075000302
$end
