$molecule
0    1
    O     -1.12680240     -1.54211475      1.31153754
    H     -0.76619031     -2.02088884      2.06191285
    H     -1.04254733     -0.58758114      1.53755040
    O      0.08037811     -2.04082136     -1.08662715
    H     -0.52978728     -2.56765168     -1.60766191
    H     -0.36157445     -1.89019653     -0.21986782
    O      0.86535644      2.15772687     -0.00512643
    H      0.98968378      1.51183438     -0.73750011
    H      1.74771741      2.40243936      0.28417358
    O     -0.79802090      1.10554245      1.88339643
    H     -0.19253834      1.51585268      1.22428248
    H     -1.58004720      1.66206359      1.90827243
    O      1.16753347      0.31035767     -1.99230840
    H      0.76793847      0.53643483     -2.83543871
    H      0.77890053     -0.55299754     -1.72659518
$end
   
$rem
mem_static = 200
mem_total  = 7500
exchange = b3lyp
basis = G3Large
max_scf_cycles = 50
scf_convergence = 7
symmetry = false
xc_grid = 000075000302
$end
