$molecule
0    1
    O      1.86301621      1.96990954      0.11907937
    H      0.90569744      2.17870842      0.02387604
    H      2.15230451      2.42041883      0.91606403
    O      0.77448360     -2.59837413      0.11907937
    H      1.01999194     -3.07415980      0.91606403
    H      1.43396812     -1.87371120      0.02387604
    O      2.63749981     -0.62846459     -0.11907937
    H      2.33966556      0.30499722     -0.02387604
    H      3.17229645     -0.65374097     -0.91606403
    O     -1.86301621     -1.96990954     -0.11907937
    H     -2.15230451     -2.42041883     -0.91606403
    H     -0.90569744     -2.17870842     -0.02387604
    O     -0.77448360      2.59837413     -0.11907937
    H     -1.01999194      3.07415980     -0.91606403
    H     -1.43396812      1.87371120     -0.02387604
    O     -2.63749981      0.62846459      0.11907937
    H     -3.17229645      0.65374097      0.91606403
    H     -2.33966556     -0.30499722      0.02387604
$end
   
$rem
mem_static = 200
mem_total  = 7500
exchange = b3lyp
basis = G3Large
max_scf_cycles = 50
scf_convergence = 7
symmetry = false
xc_grid = 000075000302
$end
