$molecule
0    1
    O      1.99059108     -0.10840032     -1.46522910
    H      1.33029276     -0.84678678     -1.53045186
    H      2.70353950     -0.31034518     -2.07624001
    O     -0.10840032     -1.99059108      1.46522910
    H     -0.31034518     -2.70353950      2.07624001
    H     -0.84678678     -1.33029276      1.53045186
    O     -1.93875321     -0.02557563      1.40160923
    H     -2.17246664      0.02636080      0.45836947
    H     -1.39882402      0.76704415      1.56446474
    O      0.02557563     -1.93875321     -1.40160923
    H     -0.02636080     -2.17246664     -0.45836947
    H     -0.76704415     -1.39882402     -1.56446474
    O     -0.02557563      1.93875321     -1.40160923
    H      0.76704415      1.39882402     -1.56446474
    H      0.02636080      2.17246664     -0.45836947
    O      0.10840032      1.99059108      1.46522910
    H      0.84678678      1.33029276      1.53045186
    H      0.31034518      2.70353950      2.07624001
    O     -1.99059108      0.10840032     -1.46522910
    H     -1.33029276      0.84678678     -1.53045186
    H     -2.70353950      0.31034518     -2.07624001
    O      1.93875321      0.02557563      1.40160923
    H      2.17246664     -0.02636080      0.45836947
    H      1.39882402     -0.76704415      1.56446474
$end
   
$rem
mem_static = 200
mem_total  = 7500
exchange = b3lyp
basis = G3Large
max_scf_cycles = 50
scf_convergence = 7
symmetry = false
xc_grid = 000075000302
$end
