$molecule
1    1
    O      0.44885522      2.45066096     -0.11283802
    H      0.53656445      3.10823637      0.58583668
    H      0.95873669      2.76786076     -0.86572497
    O     -2.34676226     -0.83661045     -0.11283802
    H     -2.87640608     -0.55364005     -0.86572497
    H     -2.96009388     -1.08943974      0.58583668
    O      1.89790703     -1.61405050     -0.11283802
    H      2.42352943     -2.01879663      0.58583668
    H      1.91766939     -2.21422071     -0.86572497
    O      0.00000000      0.00000000      0.49803719
    H      0.72067377     -0.65864517      0.22671391
    H      0.21006657      0.95344438      0.22671391
    H     -0.93074034     -0.29479921      0.22671391
$end
   
$rem
mem_static = 200
mem_total  = 7500
exchange = b3lyp
basis = G3Large
max_scf_cycles = 50
scf_convergence = 7
symmetry = false
xc_grid = 000075000302
$end
