$molecule
1    1
    O      0.00000000      0.00000000     -0.20801049
    H      0.46975655      0.81364222      0.06933683
    H      0.46975655     -0.81364222      0.06933683
    H     -0.93951311      0.00000000      0.06933683
$end
   
$rem
mem_static = 200
mem_total  = 7500
exchange = b3lyp
basis = G3Large
max_scf_cycles = 50
scf_convergence = 7
symmetry = false
xc_grid = 000075000302
$end
