$molecule
1    1
    O     -1.19972811      0.02902010      0.11574705
    H     -1.63142412     -0.73331992      0.52840646
    H     -1.69400174      0.29562364     -0.67242248
    O      1.19972811     -0.02902010      0.11574705
    H      0.00000000      0.00000000      0.05653796
    H      1.69400174     -0.29562364     -0.67242248
    H      1.63142412      0.73331992      0.52840646
$end
   
$rem
mem_static = 200
mem_total  = 7500
exchange = b3lyp
basis = G3Large
max_scf_cycles = 50
scf_convergence = 7
symmetry = false
xc_grid = 000075000302
$end
