$molecule
1    1
    O     -0.80170390     -2.17861426      1.16192045
    H     -0.95017537     -2.07898028      0.20314054
    H     -1.48591528     -2.75130269      1.52090009
    O      1.65205569      0.04771587     -1.55913259
    H      2.33132209      0.01944602     -2.24180553
    H      1.08637028     -0.73317986     -1.69157526
    O     -0.78470469     -1.45458013     -1.55913259
    H     -1.14882030     -2.02870717     -2.24180553
    H     -1.17813752     -0.57423433     -1.69157526
    O      2.28758725      0.39501118      1.16192045
    H      2.27553742      0.21661413      0.20314054
    H      3.12565566      0.08881097      1.52090009
    O     -1.48588334      1.78360308      1.16192045
    H     -1.63974038      2.66249173      1.52090009
    H     -1.32536205      1.86236614      0.20314054
    O     -0.86735100      1.40686426     -1.55913259
    H     -1.18250179      2.00926115     -2.24180553
    H      0.09176724      1.30741419     -1.69157526
    O      0.00000000      0.00000000      2.22114515
    H     -0.36183099     -0.88486681      1.86617058
    H      0.94723263      0.12907857      1.86617058
    H     -0.58540164      0.75578824      1.86617058
$end
   
$rem
mem_static = 200
mem_total  = 7500
exchange = b3lyp
basis = G3Large
max_scf_cycles = 50
scf_convergence = 7
symmetry = false
xc_grid = 000075000302
$end
