$molecule
-1    1
    H     -0.02679176      1.58182512      0.28342492
    H      1.58182512      0.02679176      0.28342492
    H      0.02679176     -1.58182512      0.28342492
    H     -1.58182512     -0.02679176      0.28342492
    O      0.00000000      0.00000000      0.95789988
    H      0.00000000      0.00000000      1.91770350
    O      0.03141993      2.41856643     -0.25299049
    O      2.41856643     -0.03141993     -0.25299049
    O     -0.03141993     -2.41856643     -0.25299049
    O     -2.41856643      0.03141993     -0.25299049
    H      0.84304797      2.27852247     -0.74933527
    H      2.27852247     -0.84304797     -0.74933527
    H     -0.84304797     -2.27852247     -0.74933527
    H     -2.27852247      0.84304797     -0.74933527
$end
   
$rem
mem_static = 200
mem_total  = 7500
exchange = b3lyp
basis = G3Large
max_scf_cycles = 50
scf_convergence = 7
symmetry = false
xc_grid = 000075000302
$end
