$molecule
-1    1
    H     -0.09138826     -0.24481283      0.01308261
    H      1.52727327      0.33831211      0.65255435
    O     -1.22083785     -0.23561822      0.06131468
    O      1.24621323     -0.22061101     -0.07713809
    H     -1.46126039      0.36272995     -0.64981354
$end
   
$rem
mem_static = 200
mem_total  = 7500
exchange = b3lyp
basis = G3Large
max_scf_cycles = 50
scf_convergence = 7
symmetry = false
xc_grid = 000075000302
$end
