%nproc=8
%mem= 2GB
#p b3lyp/6-31G*

Al2

0  3
Al    0.000    0.000    1.350500
Al    0.000    0.000   -1.350500

