%nproc=8
%mem= 2GB
#p b3lyp/6-31G*

Ar2

0 1
Ar           0.000           0.000        1.878250
Ar           0.000           0.000       -1.878250

