%nproc=8
%mem= 2GB
#p b3lyp/6-31G*

B2

0 3
B    0.000    0.000     1.295000
B    0.000    0.000    -1.295000

