%nproc=8
%mem= 2GB
#p b3lyp/6-31G*

Be2

0 1
Be    0.000    0.000     1.230000
Be    0.000    0.000    -1.230000

