%nproc=8
%mem= 2GB
#p b3lyp/6-31G*

C2

0 1
C    0.000    0.000     0.6212500
C    0.000    0.000    -0.6212500

