%nproc=8
%mem= 2GB
#p b3lyp/6-31G*

Cl2

0 1
Cl    0.000    0.000     0.994000
Cl    0.000    0.000    -0.994000

