%nproc=8
%mem= 2GB
#p b3lyp/6-31G*

Cu2

0 1
Cu    0.000    0.000     1.11000
Cu    0.000    0.000    -1.11000

