%nproc=8
%mem= 2GB
#p b3lyp/6-31G*

F2

0 1
F    0.000    0.000     0.706000
F    0.000    0.000    -0.706000

