%nproc=8
%mem= 2GB
#p b3lyp/6-31G*

H2

0 1
H         0.370           0.000           0.000 
H        -0.370           0.000           0.000 
