%nproc=8
%mem= 2GB
#p b3lyp/6-31G*

test

0 1
He     0.000      0.000   1.48475
He     0.000      0.000  -1.48475

