%nproc=8
%mem= 2GB
#p b3lyp/6-31G*

Li2

0 1
Li    0.000    0.000     1.336500
Li    0.000    0.000    -1.336500
