%nproc=8
%mem= 2GB
#p b3lyp/6-31G*

Mg2

0 1
Mg           0.000           0.000        1.94550
Mg           0.000           0.000       -1.94550

