%nproc=8
%mem= 2GB
#p b3lyp/6-31G*

N2

0 1
N    0.000    0.000     0.549000
N    0.000    0.000    -0.549000

