%nproc=8
%mem= 2GB
#p b3lyp/6-31G*

Na2

0 1
Na           0.000           0.000        1.53950
Na           0.000           0.000       -1.53950

