%nproc=8
%mem= 2GB
#p b3lyp/6-31G*

Ne2

0 1
Ne           0.000           0.000        1.54550
Ne           0.000           0.000       -1.54550


