%nproc=8
%mem= 2GB
#p b3lyp/6-31G*

O2

0 3
O    0.000    0.000     0.60281300
O    0.000    0.000    -0.60281300

