%nproc=8
%mem= 2GB
#p b3lyp/6-31G*

P2

0 1
P    0.000    0.000     0.9465000
P    0.000    0.000    -0.9465000

