%nproc=8
%mem= 2GB
#p b3lyp/6-31G*

S2

0 3
S    0.000    0.000     0.9445000
S    0.000    0.000    -0.9445000

