%nproc=8
%mem= 2GB
#p b3lyp/6-31G*

Si2

0 3
Si    0.000    0.000    1.12300
Si    0.000    0.000   -1.12300

