%nproc=8
%mem= 2GB
#p b3lyp/6-31G*

Zn2

0 1
Zn    0.000    0.000     1.98000
Zn    0.000    0.000    -1.98000

