#p b3lyp 6-311+g(3df,2p) scf=tight nosymm

c2h2

0    1
    C      0.00000000      0.00000000      0.59956396
    C      0.00000000      0.00000000     -0.59956396
    H      0.00000000      0.00000000      1.66393988
    H      0.00000000      0.00000000     -1.66393988
 
 
 
