#p b3lyp 6-311+g(3df,2p) scf=tight nosymm

o3

0    1
    O     -1.06053792      0.00000000     -0.21007298
    O      0.00000000      0.00000000      0.42014597
    O      1.06053792      0.00000000     -0.21007298
 
 
 
