#p b3lyp 6-311+g(3df,2p) scf=tight nosymm

o3_c2h2_ts

0    1
    O     -0.52502339     -1.55632503      0.00000000
    O      0.08757357     -1.18304106      1.05099092
    O      0.08757357     -1.18304106     -1.05099092
    C      0.08757357      0.83346380      0.61486296
    C      0.08757357      0.83346380     -0.61486296
    H      0.08736457      1.12773977      1.63923888
    H      0.08736457      1.12773977     -1.63923888
 
 
 
