#p b3lyp 6-311+g(3df,2p) scf=tight nosymm

o3_c2h4_vdw

0    1
    O     -0.52427396     -2.20256851      0.00000000
    O      0.06504800     -1.96170752      1.06006092
    O      0.06504800     -1.96170752     -1.06006092
    C      0.06504800      1.01767026      0.66428695
    C      0.06504800      1.01767026     -0.66428695
    H      0.96012693      0.79903328      1.23207391
    H      0.96012693      0.79903328     -1.23207391
    H     -0.82808594      1.24628824      1.23299591
    H     -0.82808594      1.24628824     -1.23299591
 
 
 
