&FORCE_EVAL 
  &DFT 
    MULTIPLICITY 4
    CHARGE 0
    &POISSON 
      PERIODIC NONE
      PSOLVER MT
    &END POISSON
  &END DFT
  &SUBSYS 
    &CELL 
      PERIODIC NONE
      ABC     10.00000000     10.00000000     10.00000000
    &END CELL
    &COORD 
          P      5.00000000      5.00000000      5.00000000
    &END COORD
  &END SUBSYS
&END FORCE_EVAL

&GLOBAL 
  PROJECT P_0
&END GLOBAL

