#p b3lyp 6-311+g(3df,2p) scf=tight nosymm

114

0    1
    O      4.14345947      1.29897298     -0.44100000
    C      3.73245947      0.18697297     -0.20700000
    O      4.06845947     -0.87202703     -0.95000000
    H      3.65645947     -1.67802703     -0.55700000
    C      2.80845947     -0.12202703      0.96800000
    H      2.58545947      0.80697298      1.48000000
    H      3.33245947     -0.79602703      1.64900001
    N      1.55945946     -0.75202703      0.58100000
    H      0.73645946     -0.18002703      0.45000000
    C      1.51845946     -2.05002703      0.24000000
    O      2.53145947     -2.75802704      0.18400000
    C      0.16445946     -2.64302704     -0.08400000
    H      0.12745946     -3.61502704      0.40800000
    H      0.11645946     -2.81602704     -1.15900000
    N     -0.95554054     -1.81302703      0.26300000
    H     -1.12754054     -1.50402703      1.21000000
    C     -1.88854055     -1.44702703     -0.65200000
    O     -1.85054055     -1.74602703     -1.83900001
    C     -2.99454055     -0.55902703     -0.09600000
    N     -2.97254055     -0.53002703      1.36800000
    H     -3.45654055     -1.34102703      1.73600001
    H     -3.48654055      0.27597297      1.70300001
    H     -3.92954055     -0.95102703     -0.50500000
    C     -2.79354055      0.84897298     -0.67900000
    H     -2.99854055      0.78497298     -1.74700001
    H     -3.54454055      1.51097298     -0.24000000
    C     -1.41554055      1.41297298     -0.47300000
    C     -0.45454054      1.29697298     -1.48500000
    H     -0.71554054      0.78497298     -2.40300001
    C      0.82145946      1.83597298     -1.32400000
    H      1.55445946      1.74297298     -2.11400001
    C      1.15745946      2.50097298     -0.14500000
    H      2.14845947      2.91597298     -0.02800000
    C      0.21245946      2.60797298      0.87600000
    H      0.46245946      3.12397298      1.79400001
    C     -1.06154054      2.06597298      0.71300000
    H     -1.79254055      2.17097298      1.50500000
 
 
 
