#p b3lyp 6-311+g(3df,2p) scf=tight nosymm

215

0    1
    O      3.39308109     -2.13886487      0.34654054
    C      3.28608109     -0.97386487      0.03954054
    O      3.45508109     -0.54486487     -1.21245946
    H      3.40508109      0.44213514     -1.21845946
    C      2.99608109      0.11413514      1.07254054
    H      3.90408109      0.71113514      1.18954054
    H      2.77608109     -0.37786487      2.01454055
    N      1.89008109      0.99913514      0.74654054
    H      1.04708108      0.99913514      1.31254054
    C      2.00108109      1.95313514     -0.18945946
    O      2.98608109      2.06213514     -0.93245946
    C      0.82508108      2.91313514     -0.28345946
    H      1.03808108      3.60513515     -1.09145946
    H      0.73908108      3.46213515      0.65554054
    N     -0.43091892      2.24513514     -0.54545946
    H     -0.85191892      2.23613514     -1.46445946
    C     -1.16191892      1.68413514      0.43354054
    O     -0.78391892      1.62313514      1.60854055
    C     -2.51291893      1.13813514     -0.01745946
    N     -2.56791893      1.08413514     -1.47745946
    H     -3.52991893      1.06213514     -1.78945947
    H     -2.13791893      0.22013514     -1.79445947
    H     -3.24891893      1.87613514      0.31354054
    C     -2.80891893     -0.19286487      0.70154054
    H     -2.80891893     -0.00886486      1.77554055
    H     -3.81091893     -0.51186487      0.41054054
    C     -1.79791892     -1.24686487      0.35654054
    C     -1.91191893     -2.00686487     -0.81445946
    H     -2.79791893     -1.90686487     -1.43145946
    C     -0.91691892     -2.91386487     -1.17945946
    H     -1.01991892     -3.48586488     -2.09145947
    C      0.20108108     -3.08686487     -0.36745946
    H      0.98708108     -3.77286488     -0.65045946
    C      0.30208108     -2.37286487      0.82554054
    H      1.15808108     -2.53086487      1.46554055
    C     -0.68391892     -1.45786487      1.17954054
    H     -0.60691892     -0.89986487      2.10354055
 
 
 
