#p b3lyp 6-311+g(3df,2p) scf=tight nosymm

224

0    1
    O      3.62545947     -1.21543244      1.59372973
    C      3.47945947     -0.44443243      0.67272973
    O      3.55245947     -0.83543244     -0.60227027
    H      3.32345947     -0.06743243     -1.18227027
    C      3.21045947      1.04156757      0.88072973
    H      3.99845947      1.61456757      0.38772973
    H      3.23545947      1.23656757      1.94672974
    N      1.92145947      1.46956757      0.36672973
    H      1.17345946      1.75956757      0.99672973
    C      1.69545946      1.60356757     -0.94627027
    O      2.51545947      1.28156757     -1.81827028
    C      0.36245946      2.24156757     -1.31427027
    H      0.31645946      2.27656757     -2.39727028
    H      0.35245946      3.25956758     -0.92127027
    N     -0.80654054      1.54556757     -0.81927027
    H     -1.39454055      1.00256757     -1.43727027
    C     -1.22054054      1.62556757      0.45672973
    O     -0.57754054      2.18556757      1.35272973
    C     -2.54954055      0.95156757      0.74772973
    N     -3.32354055      0.79256757     -0.48127027
    H     -3.70754055      1.68756757     -0.76527027
    H     -4.11654055      0.18556757     -0.30727027
    H     -3.03454055      1.58256757      1.49772973
    C     -2.28254055     -0.41743243      1.39872973
    H     -1.82154055     -0.23243243      2.36972974
    H     -3.25154055     -0.88843244      1.58472973
    C     -1.40254055     -1.32343244      0.58572973
    C     -0.05954054     -1.50043244      0.93872973
    H      0.33045946     -1.00343244      1.81872974
    C      0.77645946     -2.32743244      0.18972973
    H      1.80345947     -2.46943244      0.49172973
    C      0.27945946     -2.97543244     -0.93927027
    H      0.92845946     -3.61243244     -1.52427028
    C     -1.05654054     -2.81243244     -1.30027027
    H     -1.45254055     -3.32643244     -2.16627028
    C     -1.89154055     -1.99843244     -0.53827027
    H     -2.93154055     -1.89343244     -0.81727027
 
 
 
