#p b3lyp 6-311+g(3df,2p) scf=tight nosymm

470

0    1
    O     -2.78186487      0.81837838      1.83424325
    C     -3.27286488      0.92837838      0.73524325
    O     -4.09686488      1.93937838      0.38724324
    H     -4.19086488      2.48737839      1.18124325
    C     -3.05186487     -0.00362162     -0.42075676
    H     -2.63786487      0.57037838     -1.25475676
    H     -4.01586488     -0.38362162     -0.76075676
    N     -2.18186487     -1.07262163     -0.02275676
    H     -1.69686487     -1.02762162      0.86724325
    C     -1.87086487     -2.04362163     -0.91175676
    O     -2.35786487     -2.10962163     -2.03575676
    C     -0.84686487     -3.04762163     -0.39975676
    H     -0.79686487     -3.86062163     -1.11675676
    H     -1.15386487     -3.42962163      0.57424325
    N      0.46613514     -2.45162163     -0.26275676
    H      1.18313514     -2.55962163     -0.96575676
    C      0.81713514     -1.75362163      0.83024325
    O      0.05513514     -1.53662163      1.77624325
    C      2.26313514     -1.25962163      0.83424325
    N      2.86713514     -1.42362163     -0.48675676
    H      2.65013514     -0.61262162     -1.05775676
    H      3.87413515     -1.46262163     -0.40775676
    H      2.78913514     -1.92362163      1.52424325
    C      2.32113514      0.16837838      1.40924325
    H      1.82913514      0.16137838      2.38124325
    H      3.37113515      0.43137838      1.55724325
    C      1.66713514      1.16637838      0.49824324
    C      0.30613514      1.46937838      0.62424325
    H     -0.26686487      1.01737838      1.42324325
    C     -0.30186487      2.36537839     -0.25175676
    H     -1.34786487      2.61637839     -0.12975676
    C      0.43213514      2.96137839     -1.27775676
    H     -0.04486487      3.65537839     -1.95575676
    C      1.78813514      2.67437839     -1.40775676
    H      2.37213514      3.14637839     -2.18675676
    C      2.39913514      1.78837838     -0.52075676
    H      3.46313515      1.59637838     -0.60375676
 
 
 
