$molecule
0    1
  C      0.00000000      0.18780800      0.00000000
  O      0.14914700      1.36881300      0.00000000
  F     -1.25080900     -0.35296700      0.00000000
  C      1.03669500     -0.89648300      0.00000000
  H      2.03456700     -0.45745700      0.00000000
  H      0.90468200     -1.53214900      0.88184900
  H      0.90468200     -1.53214900     -0.88184900
$end
   
$rem
mem_static = 200
mem_total  = 7500
exchange = b3lyp
basis = 6-311+g(3df,2p)
scf_convergence = 7
symmetry = false
xc_grid = 000075000302
$end
