$molecule
0    1
  C      1.32529300     -0.00001800     -0.00258300
  N     -0.17387700     -0.00000100     -0.01153100
  O     -0.73130800      1.09270500      0.00318300
  O     -0.73134700     -1.09268400      0.00318300
  H      1.63532000      0.00011500      1.04491000
  H      1.66564200     -0.90662300     -0.49970000
  H      1.66565900      0.90645900     -0.49992100
$end
   
$rem
mem_static = 200
mem_total  = 7500
exchange = b3lyp
basis = 6-311+g(3df,2p)
scf_convergence = 7
symmetry = false
xc_grid = 000075000302
$end
