$molecule
0    1
  C     -0.32878500      0.68798200      0.00000000
  C      0.32878500     -0.68798200      0.00000000
  O      0.32878500      1.70310500      0.00000000
  H     -1.43785200      0.67164100      0.00000000
  O     -0.32878500     -1.70310500      0.00000000
  H      1.43785200     -0.67164100      0.00000000
$end
   
$rem
mem_static = 200
mem_total  = 7500
exchange = b3lyp
basis = 6-311+g(3df,2p)
scf_convergence = 7
symmetry = false
xc_grid = 000075000302
$end
