$molecule
0    1
  N      0.00000000      0.00000000      1.85399093
  C      0.00000000      0.00000000      0.69022793
  C      0.00000000      0.00000000     -0.69022793
  N      0.00000000      0.00000000     -1.85399093
$end
   
$rem
mem_static = 200
mem_total  = 7500
exchange = b3lyp
basis = 6-311+g(3df,2p)
scf_convergence = 7
symmetry = false
xc_grid = 000075000302
$end
