$molecule
0    1
  O      0.01496000     -0.71011800      0.00000000
  C      0.00000000      0.70655400      0.00000000
  C      1.32081500     -1.24164100      0.00000000
  C     -1.44670300      1.17268200      0.00000000
  H      0.53214500      1.09241200      0.88734000
  H      0.53214500      1.09241200     -0.88734000
  H      1.22781200     -2.33113100      0.00000000
  H      1.88957800     -0.93247700     -0.89272100
  H      1.88957800     -0.93247700      0.89272100
  H     -1.96906800      0.79975000     -0.88692800
  H     -1.96906800      0.79975000      0.88692800
  H     -1.49747600      2.26713900      0.00000000
$end
   
$rem
mem_static = 200
mem_total  = 7500
exchange = b3lyp
basis = 6-311+g(3df,2p)
scf_convergence = 7
symmetry = false
xc_grid = 000075000302
$end
