$molecule
0    1
  C      0.00000000      0.54260300      0.00000000
  C      1.49194000      0.73237900      0.00000000
 Cl     -0.45693100     -1.23396600      0.00000000
  O     -0.84376600      1.37767400      0.00000000
  H      1.71498000      1.80138100      0.00000000
  H      1.92567200      0.25237900      0.88261500
  H      1.92567200      0.25237900     -0.88261500
$end
   
$rem
mem_static = 200
mem_total  = 7500
exchange = b3lyp
basis = 6-311+g(3df,2p)
scf_convergence = 7
symmetry = false
xc_grid = 000075000302
$end
