$molecule
0    2
  C     -0.00423000      1.11499400      0.00000000
  S     -0.00423000     -0.69757100      0.00000000
  H      1.04757600      1.43315300      0.00000000
  H     -0.47726000      1.51901000      0.89932200
  H     -0.47726000      1.51901000     -0.89932200
$end
   
$rem
mem_static = 200
mem_total  = 7500
exchange = b3lyp
basis = 6-311+g(3df,2p)
scf_convergence = 7
symmetry = false
xc_grid = 000075000302
$end
