$molecule
0    1
  C      0.00000000      1.39473900     -0.51499400
  S      0.00000000      0.00000000      0.66325400
  C      0.00000000     -1.39473900     -0.51499400
  H      0.00000000      2.31462600      0.07585700
  H      0.89450000      1.38239000     -1.14596100
  H     -0.89450000      1.38239000     -1.14596100
  H      0.00000000     -2.31462600      0.07585700
  H     -0.89450000     -1.38239000     -1.14596100
  H      0.89450000     -1.38239000     -1.14596100
$end
   
$rem
mem_static = 200
mem_total  = 7500
exchange = b3lyp
basis = 6-311+g(3df,2p)
scf_convergence = 7
symmetry = false
xc_grid = 000075000302
$end
