$molecule
0    1
  C     -0.30086661     -1.10917108      0.73388325
  O     -0.31285149      0.32925960      0.76333304
  H     -0.69856373     -1.40538225      1.70419770
  H      0.71743625     -1.48608511      0.59942168
  H     -0.93194417     -1.48598763     -0.07657047
  N      0.16037683      0.95815977     -0.39122504
  O      0.51210163      0.21091761     -1.24952029
$end
   
$rem
mem_static = 200
mem_total  = 7500
exchange = b3lyp
basis = 6-311+g(3df,2p)
scf_convergence = 7
symmetry = false
xc_grid = 000075000302
$end
