$molecule
0    1
  H      0.00000000      0.00000000      2.13007500
  N      0.00000000      0.00000000      1.12219900
  C      0.00000000      1.12540600      0.33152800
  C      0.00000000     -1.12540600      0.33152800
  C      0.00000000      0.71255000     -0.98350000
  C      0.00000000     -0.71255000     -0.98350000
  H      0.00000000      2.11371400      0.76808500
  H      0.00000000     -2.11371400      0.76808500
  H      0.00000000      1.36143400     -1.84899000
  H      0.00000000     -1.36143400     -1.84899000
$end
   
$rem
mem_static = 200
mem_total  = 7500
exchange = b3lyp
basis = 6-311+g(3df,2p)
scf_convergence = 7
symmetry = false
xc_grid = 000075000302
$end
