$molecule
0    1
  C      1.21666000     -0.36020000      0.00000000
  C      0.00000000      0.57463400      0.00000000
  N     -1.31340500     -0.07961600      0.00000000
  H      2.15808400      0.20379900      0.00000000
  H      1.21479400     -1.00777700      0.88628500
  H      1.21479400     -1.00777700     -0.88628500
  H      0.03978900      1.23302000     -0.87707700
  H      0.03978900      1.23302000      0.87707700
  H     -1.38668800     -0.69178800      0.81256900
  H     -1.38668800     -0.69178800     -0.81256900
$end
   
$rem
mem_static = 200
mem_total  = 7500
exchange = b3lyp
basis = 6-311+g(3df,2p)
scf_convergence = 7
symmetry = false
xc_grid = 000075000302
$end
