$molecule
0    1
  C     -0.92049031     -0.06272002     -0.15994193
  O     -0.90698831      1.14374127     -0.15731685
  O      0.14089445     -0.86308782      0.02427947
  H     -1.81461669     -0.68543463     -0.31543295
  C      1.39265239     -0.18312987      0.24191920
  H      2.13411303     -0.97140389      0.37055928
  H      1.64055137      0.44355814     -0.61857007
  H      1.33573065      0.44315210      1.13587914
$end
   
$rem
mem_static = 200
mem_total  = 7500
exchange = b3lyp
basis = 6-311+g(3df,2p)
scf_convergence = 7
symmetry = false
xc_grid = 000075000302
$end
