$molecule
0    1
  C      0.07051205     -1.45739544      0.82848201
  C      0.07060328      0.06998997      0.82965055
  S     -0.07721633      0.68475641     -0.90731165
  H     -0.05254482      2.00374887     -0.61731796
  H     -0.77041226      0.45255806      1.41530102
  H      0.99848247      0.45256757      1.26476725
  H      0.15784285     -1.83177366      1.85466663
  H     -0.85613251     -1.85439002      0.40060167
  H      0.91153364     -1.85438052      0.25017245
$end
   
$rem
mem_static = 200
mem_total  = 7500
exchange = b3lyp
basis = 6-311+g(3df,2p)
scf_convergence = 7
symmetry = false
xc_grid = 000075000302
$end
