$molecule
0    2
  C     -0.01087300     -0.57540100      0.00000000
  O     -0.01087300      0.79391800      0.00000000
  H      1.06058200     -0.86659900      0.00000000
  H     -0.45417700     -1.01616900      0.90884400
  H     -0.45417700     -1.01616900     -0.90884400
$end
   
$rem
mem_static = 200
mem_total  = 7500
exchange = b3lyp
basis = 6-311+g(3df,2p)
scf_convergence = 7
symmetry = false
xc_grid = 000075000302
$end
