$molecule
0    1
  C      0.00000000      0.00000000      0.66546600
  C      0.00000000      0.00000000     -0.66546600
  H      0.00000000      0.92357900      1.23956500
  H      0.00000000     -0.92357900      1.23956500
  H      0.00000000      0.92357900     -1.23956500
  H      0.00000000     -0.92357900     -1.23956500
$end
   
$rem
mem_static = 200
mem_total  = 7500
exchange = b3lyp
basis = 6-311+g(3df,2p)
scf_convergence = 7
symmetry = false
xc_grid = 000075000302
$end
