$molecule
0    2
  C      0.06261600      0.58910000      0.00000000
  O      0.06261600     -0.59361600      0.00000000
  H     -0.87662500      1.21432600      0.00000000
$end
   
$rem
mem_static = 200
mem_total  = 7500
exchange = b3lyp
basis = 6-311+g(3df,2p)
scf_convergence = 7
symmetry = false
xc_grid = 000075000302
$end
