$molecule
0    1
  O      0.00000000      0.72785200     -0.05439600
  O      0.00000000     -0.72785200     -0.05439600
  H      0.82556700      0.89134700      0.43516900
  H     -0.82556700     -0.89134700      0.43516900
$end
   
$rem
mem_static = 200
mem_total  = 7500
exchange = b3lyp
basis = 6-311+g(3df,2p)
scf_convergence = 7
symmetry = false
xc_grid = 000075000302
$end
