$molecule
0    1
  C     -0.04820200      1.16404000      0.00000000
  S     -0.04820200     -0.67160500      0.00000000
  H      1.29233200     -0.83586000      0.00000000
  H     -1.09720700      1.46950100      0.00000000
  H      0.43265500      1.56389500      0.89568600
  H      0.43265500      1.56389500     -0.89568600
$end
   
$rem
mem_static = 200
mem_total  = 7500
exchange = b3lyp
basis = 6-311+g(3df,2p)
scf_convergence = 7
symmetry = false
xc_grid = 000075000302
$end
