$molecule
0    1
 Si      0.00000000      0.00000000      1.17511600
 Si      0.00000000      0.00000000     -1.17511600
  H      0.00000000      1.39388400      1.69917600
  H     -1.20713900     -0.69694200      1.69917600
  H      1.20713900     -0.69694200      1.69917600
  H      0.00000000     -1.39388400     -1.69917600
  H     -1.20713900      0.69694200     -1.69917600
  H      1.20713900      0.69694200     -1.69917600
$end
   
$rem
mem_static = 200
mem_total  = 7500
exchange = b3lyp
basis = 6-311+g(3df,2p)
scf_convergence = 7
symmetry = false
xc_grid = 000075000302
$end
