$molecule
0    1
 Cl      0.00000000      0.00000000      0.37339700
  F      0.00000000      0.00000000     -1.27764800
  F      0.00000000      1.72642500      0.28617100
  F      0.00000000     -1.72642500      0.28617100
$end
   
$rem
mem_static = 200
mem_total  = 7500
exchange = b3lyp
basis = 6-311+g(3df,2p)
scf_convergence = 7
symmetry = false
xc_grid = 000075000302
$end
