$molecule
0    1
  C      0.00000000      0.00000000      0.21902300
  C      0.00000000      0.00000000      1.42618500
  C      0.00000000      0.00000000     -1.24170100
  H      0.00000000      0.00000000      2.49223400
  H      0.00000000      1.02244900     -1.63775700
  H      0.88546700     -0.51122400     -1.63775700
  H     -0.88546700     -0.51122400     -1.63775700
$end
   
$rem
mem_static = 200
mem_total  = 7500
exchange = b3lyp
basis = 6-311+g(3df,2p)
scf_convergence = 7
symmetry = false
xc_grid = 000075000302
$end
