$molecule
0    1
  C      0.00000000      0.00000000      0.00000000
  C      0.00000000      0.00000000      1.30683000
  C      0.00000000      0.00000000     -1.30683000
  H      0.00000000      0.92735900      1.87625600
  H      0.00000000     -0.92735900      1.87625600
  H      0.92735900      0.00000000     -1.87625600
  H     -0.92735900      0.00000000     -1.87625600
$end
   
$rem
mem_static = 200
mem_total  = 7500
exchange = b3lyp
basis = 6-311+g(3df,2p)
scf_convergence = 7
symmetry = false
xc_grid = 000075000302
$end
