$molecule
0    1
  C      0.00000000      0.00000000      0.58683200
  C      0.00000000      1.27687100     -0.26001300
  C      0.00000000     -1.27687100     -0.26001300
  H     -0.87761100      0.00000000      1.24755700
  H      0.87761100      0.00000000      1.24755700
  H      0.00000000      2.17595100      0.36702500
  H      0.00000000     -2.17595100      0.36702500
  H      0.88465400      1.32154100     -0.90749900
  H     -0.88465400      1.32154100     -0.90749900
  H     -0.88465400     -1.32154100     -0.90749900
  H      0.88465400     -1.32154100     -0.90749900
$end
   
$rem
mem_static = 200
mem_total  = 7500
exchange = b3lyp
basis = 6-311+g(3df,2p)
scf_convergence = 7
symmetry = false
xc_grid = 000075000302
$end
