$molecule
0    1
  C      0.00000000      0.00000000      0.37270400
  H      0.00000000      0.00000000      1.47323900
  C      0.00000000      1.46209200     -0.09584100
  H      0.00000000      1.52109700     -1.19233800
  H     -0.88621600      1.99757900      0.26544900
  H      0.88621600      1.99757900      0.26544900
  C      1.26620900     -0.73104600     -0.09584100
  H      1.31730900     -0.76054900     -1.19233800
  H      2.17306200     -0.23130400      0.26544900
  H      1.28684600     -1.76627500      0.26544900
  C     -1.26620900     -0.73104600     -0.09584100
  H     -1.31730900     -0.76054900     -1.19233800
  H     -1.28684600     -1.76627500      0.26544900
  H     -2.17306200     -0.23130400      0.26544900
$end
   
$rem
mem_static = 200
mem_total  = 7500
exchange = b3lyp
basis = 6-311+g(3df,2p)
scf_convergence = 7
symmetry = false
xc_grid = 000075000302
$end
