$molecule
0    1
  C      0.00000000      0.00000000      0.49931200
  F      0.00000000      1.10901800     -0.28977200
  F      0.00000000     -1.10901800     -0.28977200
  H     -0.90980500      0.00000000      1.11001500
  H      0.90980500      0.00000000      1.11001500
$end
   
$rem
mem_static = 200
mem_total  = 7500
exchange = b3lyp
basis = 6-311+g(3df,2p)
scf_convergence = 7
symmetry = false
xc_grid = 000075000302
$end
