$molecule
0    2
  N      0.00000000      0.00000000      0.14444300
  H      0.00000000      0.80458200     -0.50555200
  H      0.00000000     -0.80458200     -0.50555200
$end
   
$rem
mem_static = 200
mem_total  = 7500
exchange = b3lyp
basis = 6-311+g(3df,2p)
scf_convergence = 7
symmetry = false
xc_grid = 000075000302
$end
