$molecule
0    1
  C      0.00200000      0.76703900      0.00000000
  C     -0.00200000     -0.76703900      0.00000000
  C     -1.40300900      1.38257300      0.00000000
  C      1.40300900     -1.38257300      0.00000000
  C     -1.40300900      2.91671200      0.00000000
  C      1.40300900     -2.91671200      0.00000000
  C     -2.81106300      3.52055700      0.00000000
  C      2.81106300     -3.52055700      0.00000000
  H      0.55717900      1.12879000      0.87846400
  H      0.55717900      1.12879000     -0.87846400
  H     -0.55717900     -1.12879000      0.87846400
  H     -0.55717900     -1.12879000     -0.87846400
  H     -1.95851800      1.02072700      0.87836500
  H     -1.95851800      1.02072700     -0.87836500
  H      1.95851800     -1.02072700      0.87836500
  H      1.95851800     -1.02072700     -0.87836500
  H     -0.84893000      3.27857200     -0.87799700
  H     -0.84893000      3.27857200      0.87799700
  H      0.84893000     -3.27857200     -0.87799700
  H      0.84893000     -3.27857200      0.87799700
  H     -3.37789700      3.20458000      0.88460500
  H     -3.37789700      3.20458000     -0.88460500
  H      3.37789700     -3.20458000      0.88460500
  H      3.37789700     -3.20458000     -0.88460500
  H     -2.77775500      4.61608900      0.00000000
  H      2.77775500     -4.61608900      0.00000000
$end
   
$rem
mem_static = 200
mem_total  = 7500
exchange = b3lyp
basis = 6-311+g(3df,2p)
scf_convergence = 7
symmetry = false
xc_grid = 000075000302
$end
