$molecule
0    1
  H     -1.13223924      0.88505282      2.97634899
  C     -0.48484507      0.00000000      2.98469071
  H      0.06891546      0.00000000      3.93005634
  C      0.46813010      0.00000000      1.78492153
  H     -1.13223924     -0.88505282      2.97634899
  H      1.12573258      0.87894567      1.83973849
  C     -0.27599890      0.00000000      0.44046178
  H      1.12573258     -0.87894567      1.83973849
  H     -0.92739980      0.88044423      0.37402678
  H     -0.92739980     -0.88044423      0.37402678
  C      0.68832306      0.00000000     -0.73766947
  H      1.32457289      0.88818371     -0.74165441
 Cl     -0.18964138      0.00000000     -2.33302373
  H      1.32457289     -0.88818371     -0.74165441
$end
   
$rem
mem_static = 200
mem_total  = 7500
exchange = b3lyp
basis = 6-311+g(3df,2p)
scf_convergence = 7
symmetry = false
xc_grid = 000075000302
$end
