$molecule
0    1
  H      3.31434540      0.00000000     -0.15537119
  C      2.37934400      0.00000000      0.41588500
  H      2.36349708     -0.88686390      1.05778500
  C      1.18248075      0.00000000     -0.52140479
  H      2.36349708      0.88686390      1.05778500
  H      1.20541769     -0.88705675     -1.17893561
  H      1.20541769      0.88705675     -1.17893561
  O      0.00000000      0.00000000      0.25769779
  C     -1.18248075      0.00000000     -0.52140479
  C     -2.37934400      0.00000000      0.41588500
  H     -1.20541769     -0.88705675     -1.17893561
  H     -1.20541769      0.88705675     -1.17893561
  H     -3.31434540      0.00000000     -0.15537119
  H     -2.36349708      0.88686390      1.05778500
  H     -2.36349708     -0.88686390      1.05778500
$end
   
$rem
mem_static = 200
mem_total  = 7500
exchange = b3lyp
basis = 6-311+g(3df,2p)
scf_convergence = 7
symmetry = false
xc_grid = 000075000302
$end
