$molecule
0    1
  O      0.00000000      0.00000000      0.32719200
  C      0.00000000      1.17558100     -0.37339700
  C      0.00000000     -1.17558100     -0.37339700
  C      0.00000000      2.35779300      0.23704600
  C      0.00000000     -2.35779300      0.23704600
  H      0.00000000      1.06570400     -1.45756400
  H      0.00000000     -1.06570400     -1.45756400
  H      0.00000000      3.26707300     -0.35168800
  H      0.00000000     -3.26707300     -0.35168800
  H      0.00000000      2.43943800      1.31859200
  H      0.00000000     -2.43943800      1.31859200
$end
   
$rem
mem_static = 200
mem_total  = 7500
exchange = b3lyp
basis = 6-311+g(3df,2p)
scf_convergence = 7
symmetry = false
xc_grid = 000075000302
$end
