$molecule
0    1
  H     -1.26261651     -2.02524961      0.24908055
  H     -1.26261651      2.02524961      0.24908055
  C      0.73797069     -1.17171758      0.19248133
  C      0.73797069      1.17171758      0.19248133
  H      1.26261651      2.02524961     -0.24908055
  C     -0.73797069      1.17171758     -0.19248133
  C     -0.73797069     -1.17171758     -0.19248133
  H      0.83305982     -1.22530462      1.28994965
  H      0.83305982      1.22530462      1.28994965
  O      1.38205152      0.00000000     -0.29742563
  H     -0.83305982      1.22530462     -1.28994965
  H     -0.83305982     -1.22530462     -1.28994965
  O     -1.38205152      0.00000000      0.29742563
  H      1.26261651     -2.02524961     -0.24908055
$end
   
$rem
mem_static = 200
mem_total  = 7500
exchange = b3lyp
basis = 6-311+g(3df,2p)
scf_convergence = 7
symmetry = false
xc_grid = 000075000302
$end
