$molecule
0    1
  C     -0.00462568      0.91391581      0.00000000
  C     -0.00746887      0.19430335      1.20238606
  C     -0.00746887      0.19430335     -1.20238606
  C     -0.00679949     -1.20119020      1.20546218
  C     -0.00679949     -1.20119020     -1.20546218
  C     -0.00574796     -1.90504605      0.00000000
  C      0.02748536      2.42540383      0.00000000
  H      1.05931054      2.80193422      0.00000000
  H     -0.46752058      2.83746539     -0.88600666
  H     -0.46752058      2.83746539      0.88600666
  H     -0.01141326     -1.73859068      2.15043866
  H     -0.01141326     -1.73859068     -2.15043866
  H     -0.00841475     -2.99181476      0.00000000
  H     -0.01223907      0.73456589      2.14686447
  H     -0.01223907      0.73456589     -2.14686447
$end
   
$rem
mem_static = 200
mem_total  = 7500
exchange = b3lyp
basis = 6-311+g(3df,2p)
scf_convergence = 7
symmetry = false
xc_grid = 000075000302
$end
