$molecule
0    1
  C      0.20359355     -0.14604307      1.51481838
  C     -0.00047994      0.01598727      0.00043512
  C     -1.48767299     -0.14604307     -0.35064818
  C      0.83705494     -1.03484472     -0.75888951
  N      0.38240461      1.40171194     -0.34669510
  H      0.54581552     -2.05948438     -0.49484646
  H      1.90441762     -0.92170559     -0.52924859
  H      0.71281649     -0.92170559     -1.84358434
  H     -2.08724563      0.60319646      0.17600424
  H     -1.85118469     -1.14331157     -0.07794596
  H     -1.65246233     -0.01510101     -1.42820516
  H     -0.10332608     -1.14331157      1.84994164
  H     -0.37912888      0.60319646      2.06005658
  H      1.25988990     -0.01510101      1.78411860
  H      1.37544659      1.53350288     -0.14946163
  H      0.28315584      1.53350288     -1.35425805
$end
   
$rem
mem_static = 200
mem_total  = 7500
exchange = b3lyp
basis = 6-311+g(3df,2p)
scf_convergence = 7
symmetry = false
xc_grid = 000075000302
$end
