$molecule
0    1
  C      0.00000000      0.00000000      0.31561300
  C      0.00000000      1.28404500     -0.52365700
  C      0.00000000     -1.28404500     -0.52365700
  C      0.00000000      2.56000600      0.32443900
  C      0.00000000     -2.56000600      0.32443900
  H     -0.87843400      0.00000000      0.97866400
  H      0.87843400      0.00000000      0.97866400
  H     -0.87799900      1.28368700     -1.18540900
  H      0.87799900      1.28368700     -1.18540900
  H      0.87799900     -1.28368700     -1.18540900
  H     -0.87799900     -1.28368700     -1.18540900
  H      0.88464400      2.60537800      0.97169900
  H     -0.88464400      2.60537800      0.97169900
  H     -0.88464400     -2.60537800      0.97169900
  H      0.88464400     -2.60537800      0.97169900
  H      0.00000000      3.45882300     -0.30277500
  H      0.00000000     -3.45882300     -0.30277500
$end
   
$rem
mem_static = 200
mem_total  = 7500
exchange = b3lyp
basis = 6-311+g(3df,2p)
scf_convergence = 7
symmetry = false
xc_grid = 000075000302
$end
