$molecule
0    1
  C     -1.58948000     -0.90939600     -0.00000600
  C     -0.51576100     -0.10072200      0.00001900
  C      0.83333500     -0.67950200      0.00000400
  C      1.98580200      0.00483400     -0.00000300
  C     -0.65948400      1.40197800     -0.00001400
  H     -1.48622600     -1.99173100     -0.00001100
  H     -2.60272100     -0.51738900     -0.00002400
  H      0.87139300     -1.76885700     -0.00000400
  H      2.94354400     -0.50705200     -0.00001300
  H      2.01929000      1.09074500      0.00000400
  H     -0.17955700      1.84619900     -0.88130400
  H     -1.71213900      1.69879800     -0.00023400
  H     -0.18005600      1.84613300      0.88158200
$end
   
$rem
mem_static = 200
mem_total  = 7500
exchange = b3lyp
basis = 6-311+g(3df,2p)
scf_convergence = 7
symmetry = false
xc_grid = 000075000302
$end
