$molecule
0    1
  C      1.09477400      1.09477400      1.09477400
 Si      0.00000000      0.00000000      0.00000000
  C     -1.09477400     -1.09477400      1.09477400
  C     -1.09477400      1.09477400     -1.09477400
  C      1.09477400     -1.09477400     -1.09477400
  H      1.74245200      1.74245200      0.49135100
  H      1.74245200      0.49135100      1.74245200
  H      0.49135100      1.74245200      1.74245200
  H     -1.74245200     -1.74245200      0.49135100
  H     -1.74245200     -0.49135100      1.74245200
  H     -0.49135100     -1.74245200      1.74245200
  H     -1.74245200      0.49135100     -1.74245200
  H     -0.49135100      1.74245200     -1.74245200
  H     -1.74245200      1.74245200     -0.49135100
  H      0.49135100     -1.74245200     -1.74245200
  H      1.74245200     -1.74245200     -0.49135100
  H      1.74245200     -0.49135100     -1.74245200
$end
   
$rem
mem_static = 200
mem_total  = 7500
exchange = b3lyp
basis = 6-311+g(3df,2p)
scf_convergence = 7
symmetry = false
xc_grid = 000075000302
$end
