$molecule
0    1
  C     -2.17764400      1.61012400      0.00000000
  C     -0.84560900      2.05508300      0.00000000
  C     -2.21323900      0.20608200      0.00000000
  C      0.00000000      0.93266400      0.00000000
  C     -0.89228500     -0.27390600      0.00000000
  C      1.39169700      0.95420700      0.00000000
  C     -0.50412400     -1.61073100      0.00000000
  C      2.28940100     -0.11758900      0.00000000
  C      0.78411600     -2.15404800      0.00000000
  C      2.01355400     -1.48818600      0.00000000
  H     -3.04996900      2.25531900      0.00000000
  H     -0.51347300      3.08664300      0.00000000
  H     -3.10241100     -0.41336400      0.00000000
  H      1.84184200      1.94694800      0.00000000
  H     -1.32079700     -2.33269800      0.00000000
  H      3.34352800      0.15105800      0.00000000
  H      0.83681000     -3.24059300      0.00000000
  H      2.88927400     -2.13551700      0.00000000
$end
   
$rem
mem_static = 200
mem_total  = 7500
exchange = b3lyp
basis = 6-311+g(3df,2p)
scf_convergence = 7
symmetry = false
xc_grid = 000075000302
$end
