$molecule
0    1
  H     -3.45590710      0.00000000     -0.48811314
  C     -2.55469468      0.00000000      0.13394357
  H     -2.58098433      0.88074009      0.78244159
  C     -1.29861452      0.00000000     -0.73509912
  H     -2.58098433     -0.88074009      0.78244159
  H     -1.28203410      0.87252987     -1.40505223
  H     -1.28203410     -0.87252987     -1.40505223
  C      0.00000000      0.00000000      0.06739996
  O      0.00000000      0.00000000      1.28451696
  C      1.29861452      0.00000000     -0.73509912
  C      2.55469468      0.00000000      0.13394357
  H      1.28203410      0.87252987     -1.40505223
  H      1.28203410     -0.87252987     -1.40505223
  H      2.58098433     -0.88074009      0.78244159
  H      2.58098433      0.88074009      0.78244159
  H      3.45590710      0.00000000     -0.48811314
$end
   
$rem
mem_static = 200
mem_total  = 7500
exchange = b3lyp
basis = 6-311+g(3df,2p)
scf_convergence = 7
symmetry = false
xc_grid = 000075000302
$end
