$molecule
0    1
  P      0.00000000      0.00000000      0.43070600
  O      0.00000000      0.00000000      1.90269900
 Cl      0.00000000      1.84996500     -0.42514100
 Cl      1.60211600     -0.92498200     -0.42514100
 Cl     -1.60211600     -0.92498200     -0.42514100
$end
   
$rem
mem_static = 200
mem_total  = 7500
exchange = b3lyp
basis = 6-311+g(3df,2p)
scf_convergence = 7
symmetry = false
xc_grid = 000075000302
$end
