$molecule
0    1
  S      0.45192800      0.88162000      0.74640000
  S     -0.45192800     -0.88162000      0.74640000
 Cl     -0.45192800      2.14117500     -0.70249400
 Cl      0.45192800     -2.14117500     -0.70249400
$end
   
$rem
mem_static = 200
mem_total  = 7500
exchange = b3lyp
basis = 6-311+g(3df,2p)
scf_convergence = 7
symmetry = false
xc_grid = 000075000302
$end
