$molecule
0    1
  S      0.00000000      0.00000000      0.00000000
  O      0.00000000      1.45326300      0.00000000
  O      1.25856300     -0.72663200      0.00000000
  O     -1.25856300     -0.72663200      0.00000000
$end
   
$rem
mem_static = 200
mem_total  = 7500
exchange = b3lyp
basis = 6-311+g(3df,2p)
scf_convergence = 7
symmetry = false
xc_grid = 000075000302
$end
