$molecule
0    1
  C      0.00000000      0.00000000      1.37155310
  C      1.21668499      0.00000000      0.69769685
  C      1.21668499      0.00000000     -0.69769685
  C      0.00000000      0.00000000     -1.37155310
  C     -1.21668499      0.00000000     -0.69769685
  C     -1.21668499      0.00000000      0.69769685
  F      0.00000000      0.00000000      2.72198738
  F      0.00000000      0.00000000     -2.72198738
  H      2.14280691      0.00000000      1.26262738
  H      2.14280691      0.00000000     -1.26262738
  H     -2.14280691      0.00000000     -1.26262738
  H     -2.14280691      0.00000000      1.26262738
$end
   
$rem
mem_static = 200
mem_total  = 7500
exchange = b3lyp
basis = 6-311+g(3df,2p)
scf_convergence = 7
symmetry = false
xc_grid = 000075000302
$end
