$molecule
0    1
  F      0.00000000      0.00000000     -2.28249112
  C      0.00000000      0.00000000     -0.93174387
  C      1.21742462      0.00000000     -0.26034372
  C     -1.21742462      0.00000000     -0.26034372
  C      1.20858679      0.00000000      1.13552941
  C     -1.20858679      0.00000000      1.13552941
  C      0.00000000      0.00000000      1.83590485
  H      2.14194889      0.00000000     -0.82853002
  H     -2.14194889      0.00000000     -0.82853002
  H      2.15161913      0.00000000      1.67515751
  H     -2.15161913      0.00000000      1.67515751
  H      0.00000000      0.00000000      2.92197088
$end
   
$rem
mem_static = 200
mem_total  = 7500
exchange = b3lyp
basis = 6-311+g(3df,2p)
scf_convergence = 7
symmetry = false
xc_grid = 000075000302
$end
