$molecule
0    1
    O     -2.12624297      0.91974980      1.82649584
    H     -2.18812221      1.46201462      2.61584763
    H     -1.59863576      1.42651821      1.17377165
    O     -0.62420039     -1.35331657      1.17571027
    H     -1.19880545     -0.67942873      1.58777590
    H      0.27298326     -0.99630746      1.26452312
    O      1.82876244      0.17548171      0.64226386
    H      2.03924991     -0.20294550     -0.24015645
    H      2.66325122      0.29793412      1.10137493
    O     -0.84229947     -0.84385392     -1.44904388
    H     -1.54547625     -1.31618202     -1.90165146
    H     -0.86134234     -1.13663639     -0.49863664
    O     -0.45371513      1.83282639     -0.19153922
    H     -0.72816573      1.16381046     -0.83645461
    H      0.40136884      1.50543038      0.13034231
    O      1.89220427     -0.90998544     -1.87069724
    H      2.15375507     -0.37201417     -2.62224923
    H      0.91543070     -0.97309549     -1.90767678
$end
   
$rem
mem_static = 200
mem_total  = 7500
exchange = b3lyp
basis = G3Large
max_scf_cycles = 50
scf_convergence = 7
symmetry = false
xc_grid = 000075000302
$end
