$molecule
0    1
    O     -1.46455522     -1.46455522      1.34970669
    O     -1.46455522      1.46455522     -1.34970669
    O      1.46455522     -1.46455522     -1.34970669
    O      1.46455522      1.46455522      1.34970669
    H     -1.53466543     -1.53466543      0.36225535
    H     -1.53466543      1.53466543     -0.36225535
    H      1.53466543     -1.53466543     -0.36225535
    H      1.53466543      1.53466543      0.36225535
    H     -2.08966358     -2.08966358      1.72511118
    H     -2.08966358      2.08966358     -1.72511118
    H      2.08966358     -2.08966358     -1.72511118
    H      2.08966358      2.08966358      1.72511118
    O     -1.40528858     -1.40528858     -1.33900825
    O     -1.40528858      1.40528858      1.33900825
    O      1.40528858     -1.40528858      1.33900825
    O      1.40528858      1.40528858     -1.33900825
    H     -1.55261578     -0.46206455     -1.52689894
    H     -1.55261578      0.46206455      1.52689894
    H      1.55261578     -0.46206455      1.52689894
    H     -0.46206455     -1.55261578     -1.52689894
    H      0.46206455      1.55261578     -1.52689894
    H      0.46206455     -1.55261578      1.52689894
    H     -0.46206455      1.55261578      1.52689894
    H      1.55261578      0.46206455     -1.52689894
$end
   
$rem
mem_static = 200
mem_total  = 7500
exchange = b3lyp
basis = G3Large
max_scf_cycles = 50
scf_convergence = 7
symmetry = false
xc_grid = 000075000302
$end
