$molecule
-1    1
    H      1.83052034     -1.89684624     -0.69396279
    O      2.20228790     -1.15195446     -0.21661418
    H      1.38056322     -0.68485638      0.15030980
    H      0.00000000      0.00000000      1.62059288
    H     -0.09717859      1.53803101      0.15030980
    H      0.72745686      2.53370023     -0.69396279
    O     -0.10352213      2.48321450     -0.21661418
    O      0.00000000      0.00000000      0.66020861
    H     -1.28338463     -0.85317463      0.15030980
    O     -2.09876577     -1.33126004     -0.21661418
    H     -2.55797720     -0.63685400     -0.69396279
$end
   
$rem
mem_static = 200
mem_total  = 7500
exchange = b3lyp
basis = G3Large
max_scf_cycles = 50
scf_convergence = 7
symmetry = false
xc_grid = 000075000302
$end
