$molecule
-1    1
    O      0.79412685     -0.15804949      2.06603931
    O     -0.02659900     -1.46862547      0.00000000
    H      0.85354367      1.31756805      0.76326947
    H     -0.04920917      0.05568788      2.47385619
    O      0.70601960      1.90610928      0.00000000
    H      0.85354367      1.31756805     -0.76326947
    O      0.79412685     -0.15804949     -2.06603931
    H     -0.04920917      0.05568788     -2.47385619
    H      0.52530290     -0.76678107     -1.28987415
    O     -2.03773015      0.39058877      0.00000000
    H     -1.39115328      1.10999287      0.00000000
    H     -1.45458473     -0.40795532      0.00000000
    H      0.52530290     -0.76678107      1.28987415
    H     -0.04348093     -2.42696088      0.00000000
$end
   
$rem
mem_static = 200
mem_total  = 7500
exchange = b3lyp
basis = G3Large
max_scf_cycles = 50
scf_convergence = 7
symmetry = false
xc_grid = 000075000302
$end
