$molecule
-1    1
    H      1.50127744     -0.38819869     -0.06874429
    H      0.06954498     -2.00314501     -0.09369741
    H     -1.29748692     -0.37585348      0.32073599
    O      0.09399225      1.97496633     -1.17023088
    O      1.93702042     -0.24345794     -0.95357256
    O     -0.15552320     -2.51344603     -0.91074028
    O     -1.96169236     -0.06001965     -0.32893191
    H      0.77571857      1.28241856     -1.26504828
    H      1.56148744     -0.97224904     -1.46276962
    H     -0.94870132     -2.04871433     -1.20363860
    H     -1.47182317      0.63369374     -0.79979622
    O      0.33300524     -0.71843587      1.14008607
    H      0.55492337     -1.18901869      1.94655940
    O     -0.11241129      1.81908777      1.73421483
    H      0.08451755      2.13409835     -0.20916157
    H     -1.07360082      1.82259001      1.74831542
    H      0.10975182      0.84568400      1.57641992
$end
   
$rem
mem_static = 200
mem_total  = 7500
exchange = b3lyp
basis = G3Large
max_scf_cycles = 50
scf_convergence = 7
symmetry = false
xc_grid = 000075000302
$end
