$molecule
0    2
    C     -0.01057502     -0.69585745      0.00000000
    C     -0.01057502      0.79518401      0.00000000
    H      1.00908273     -1.09968316      0.00000000
    H     -0.50862026     -1.09548149      0.88341902
    H     -0.50862026     -1.09548149     -0.88341902
    H      0.06752883      1.34734339     -0.92431912
    H      0.06752883      1.34734339      0.92431912
$end
   
$rem
mem_static = 200
mem_total  = 7500
exchange = b3lyp
basis = G3Large
max_scf_cycles = 50
scf_convergence = 7
symmetry = false
xc_grid = 000075000302
$end
