$molecule
0    1
    C     -2.05563650     -0.61227391      0.00000700
    C     -1.23109903      0.64044730      0.00004900
    C      0.10563383      0.73427571      0.00002600
    C      1.05755536     -0.37440716     -0.00004400
    C      2.38358349     -0.19893623     -0.00003600
    H     -2.70508510     -0.64159562      0.87713239
    H     -2.70512744     -0.64150566     -0.87709006
    H     -1.45133200     -1.51608212     -0.00005500
    H     -1.79366732      1.56758694      0.00010300
    H      0.54575633      1.72564159      0.00006400
    H      0.66526042     -1.38324277     -0.00010500
    H      3.06469277     -1.03772180     -0.00008800
    H      2.81927625      0.79228412      0.00002300
$end
   
$rem
mem_static = 200
mem_total  = 7500
exchange = b3lyp
basis = G3Large
max_scf_cycles = 50
scf_convergence = 7
symmetry = false
xc_grid = 000075000302
$end
