$molecule
0    2
    C      0.00000000      0.00000000      0.00000000
    H      0.53865808      0.93298316      0.00000000
    H      0.53865808     -0.93298316      0.00000000
    H     -1.07731616      0.00000000      0.00000000
$end
   
$rem
mem_static = 200
mem_total  = 7500
exchange = b3lyp
basis = G3Large
max_scf_cycles = 50
scf_convergence = 7
symmetry = false
xc_grid = 000075000302
$end
