$molecule
-1    1
    F      0.00000000      0.00000000     -1.88993612
    C      0.00000000      0.00000000     -0.48156273
    H     -0.51235996      0.88743348     -0.12780247
    H     -0.51235996     -0.88743348     -0.12780247
    H      1.02471992      0.00000000     -0.12780247
   Cl      0.00000000      0.00000000      2.75490626
$end
   
$rem
mem_static = 200
mem_total  = 7500
exchange = b3lyp
basis = G3Large
max_scf_cycles = 50
scf_convergence = 7
symmetry = false
xc_grid = 000075000302
$end
