$molecule
-1    1
   Cl      0.00000000      0.00000000      2.12296416
    C      0.00000000      0.00000000      0.27246585
    H     -0.51316166     -0.88882207     -0.05531445
    H     -0.51316166      0.88882207     -0.05531445
    H      1.02632332      0.00000000     -0.05531445
    F      0.00000000      0.00000000     -2.22948665
$end
   
$rem
mem_static = 200
mem_total  = 7500
exchange = b3lyp
basis = G3Large
max_scf_cycles = 50
scf_convergence = 7
symmetry = false
xc_grid = 000075000302
$end
