$molecule
0    1
    O      0.00000000      0.00000000      0.11714502
    H      0.00000000      0.75670753     -0.46858219
    H      0.00000000     -0.75670753     -0.46858219
$end
   
$rem
mem_static = 200
mem_total  = 7500
exchange = b3lyp
basis = G3Large
max_scf_cycles = 50
scf_convergence = 7
symmetry = false
xc_grid = 000075000302
$end
