$molecule
0    2
    H     -0.01747502     -2.25940677      0.00000000
   Cl      0.00066600     -0.61996285      0.00000000
    C      0.00066600      1.32732990      0.00000000
    H     -1.04338929      1.61180499      0.00000000
    H      0.52277522      1.61148748      0.90428448
    H      0.52277522      1.61148748     -0.90428448
$end
   
$rem
mem_static = 200
mem_total  = 7500
exchange = b3lyp
basis = G3Large
max_scf_cycles = 50
scf_convergence = 7
symmetry = false
xc_grid = 000075000302
$end
