$molecule
0    2
    H      0.87448651     -0.98565605      0.00000000
    N     -0.06246302     -0.51871220      0.00000000
    N     -0.06246302      0.65951885      0.00000000
$end
   
$rem
mem_static = 200
mem_total  = 7500
exchange = b3lyp
basis = G3Large
max_scf_cycles = 50
scf_convergence = 7
symmetry = false
xc_grid = 000075000302
$end
