$molecule
0    2
    C     -1.21148772      0.00796798      0.00040700
    O      1.29396528     -0.10869406      0.00013300
    H      0.00947603     -0.11802028      0.00279900
    H     -1.52552794     -0.23325020      1.01007229
    H     -1.43066763      1.03323438     -0.27808209
    H     -1.55271177     -0.71011348     -0.73770478
    H      1.41663914      0.84989564     -0.00059100
$end
   
$rem
mem_static = 200
mem_total  = 7500
exchange = b3lyp
basis = G3Large
max_scf_cycles = 50
scf_convergence = 7
symmetry = false
xc_grid = 000075000302
$end
