$molecule
0    2
    C     -1.26074883     -0.00000600      0.01229099
    N      1.31325379     -0.00000500     -0.13678225
    H     -1.58398614      0.90853906     -0.48474432
    H     -1.46367241     -0.00457300      1.07730426
    H     -1.58474816     -0.90388230     -0.49269997
    H      0.04310799     -0.00006400     -0.15169182
    H      1.48045791      0.80557705      0.46775138
    H      1.48055846     -0.80552413      0.46780800
$end
   
$rem
mem_static = 200
mem_total  = 7500
exchange = b3lyp
basis = G3Large
max_scf_cycles = 50
scf_convergence = 7
symmetry = false
xc_grid = 000075000302
$end
