lattice_vector 0.0000 2.1656 2.1656
lattice_vector 2.1656 0.0000 2.1656
lattice_vector 2.1656 2.1656 0.0000

atom   0.0000 0.0000 0.0000 Si
atom   1.0828 1.0828 1.0828 C
