$molecule
0    1
    C      0.88529289      0.88529289     -0.88529289
    C     -0.88529289     -0.88529289     -0.88529289
    C     -0.88529289      0.88529289      0.88529289
    C      0.88529289     -0.88529289      0.88529289
    C      1.76649936      0.00000000      0.00000000
    C      0.00000000     -1.76649936      0.00000000
    C      0.00000000      0.00000000      1.76649936
    C      0.00000000      0.00000000     -1.76649936
    C     -1.76649936      0.00000000      0.00000000
    C      0.00000000      1.76649936      0.00000000
    H      2.41445835      0.62294762      0.62294762
    H      0.62294762     -2.41445835     -0.62294762
    H     -0.62294762     -0.62294762      2.41445835
    H     -0.62294762      0.62294762     -2.41445835
    H     -2.41445835      0.62294762     -0.62294762
    H     -0.62294762      2.41445835     -0.62294762
    H     -0.62294762     -2.41445835      0.62294762
    H      0.62294762      0.62294762      2.41445835
    H      2.41445835     -0.62294762     -0.62294762
    H     -2.41445835     -0.62294762      0.62294762
    H      0.62294762      2.41445835      0.62294762
    H      0.62294762     -0.62294762     -2.41445835
    H      1.51602909      1.51602909     -1.51602909
    H     -1.51602909     -1.51602909     -1.51602909
    H     -1.51602909      1.51602909      1.51602909
    H      1.51602909     -1.51602909      1.51602909
$end
   
$rem
mem_static = 200
mem_total  = 7500
exchange = b3lyp
basis = G3Large
max_scf_cycles = 50
scf_convergence = 7
symmetry = false
xc_grid = 000075000302
$end
