$molecule
0    1
    C      0.00000000      0.00000000     -0.76168938
    C      0.00000000      0.00000000      0.76168938
    H     -0.87860026      0.50726010     -1.15576497
    H      0.00000000     -1.01452019     -1.15576497
    H      0.87860026      0.50726010     -1.15576497
    H     -0.87860026     -0.50726010      1.15576497
    H      0.00000000      1.01452019      1.15576497
    H      0.87860026     -0.50726010      1.15576497
$end
   
$rem
mem_static = 200
mem_total  = 7500
exchange = b3lyp
basis = G3Large
max_scf_cycles = 50
scf_convergence = 7
symmetry = false
xc_grid = 000075000302
$end
