$molecule
0    1
    C     -3.16905235      0.98025038     -0.28055534
    C     -2.00522584      0.00674614     -0.41791456
    C     -0.69288552      0.60990071      0.06826664
    C      0.54294811     -0.26024664     -0.15967628
    C      1.80446654      0.52641666      0.19862209
    C      3.10769498     -0.17996411     -0.15494852
    C      0.45863159     -1.56523658      0.62559579
    H     -2.99047670      1.88328435     -0.86408208
    H     -4.10448244      0.54009548     -0.62259848
    H     -3.30130329      1.27953807      0.75919163
    H     -1.89465865     -0.28989998     -1.46412221
    H     -2.22941452     -0.90268981      0.14038311
    H     -0.54249872      1.56776660     -0.43875961
    H     -0.77207719      0.83694341      1.13731435
    H      0.59148787     -0.50038105     -1.22854336
    H      1.76870359      1.48857470     -0.31751183
    H      1.78282245      0.75052462      1.26964678
    H      3.12563684     -0.44651832     -1.21221523
    H      3.96605156      0.46108333      0.04094393
    H      3.24338370     -1.09300264      0.42120272
    H      0.40394260     -1.35381168      1.69594494
    H     -0.42198971     -2.14318809      0.35193837
    H      1.32829509     -2.19618555      0.45187714
$end
   
$rem
mem_static = 200
mem_total  = 7500
exchange = b3lyp
basis = G3Large
max_scf_cycles = 50
scf_convergence = 7
symmetry = false
xc_grid = 000075000302
$end
