$molecule
0    1
    C     -2.30442120     -0.58493731     -0.15292062
    C     -1.04867462      0.25751127     -0.34769184
    C      0.19208235     -0.55062394      0.02784857
    C      1.51865151      0.13917222     -0.26453436
    C      2.71210154     -0.75959203      0.03338536
    C     -1.15477325      1.54765660      0.45858185
    H     -2.41084758     -0.86409732      0.89700130
    H     -3.19942758     -0.03570154     -0.44439507
    H     -2.26194273     -1.50183566     -0.74023474
    H     -0.96967701      0.51842688     -1.40812729
    H      0.13938537     -0.79987616      1.09353750
    H      0.16708629     -1.50206940     -0.51169000
    H      1.60056796      1.05384994      0.32379153
    H      1.53852249      0.44224003     -1.31453855
    H      2.71517823     -1.06263077      1.08042837
    H      3.65562484     -0.25605490     -0.17128471
    H      2.67687443     -1.66507138     -0.57208795
    H     -1.19323350      1.32038071      1.52613726
    H     -2.06325781      2.09165354      0.20074517
    H     -0.30981975      2.21159922      0.28604823
$end
   
$rem
mem_static = 200
mem_total  = 7500
exchange = b3lyp
basis = G3Large
max_scf_cycles = 50
scf_convergence = 7
symmetry = false
xc_grid = 000075000302
$end
