$molecule
0    1
    C     -1.58470493      1.45894762      0.00000000
    C     -1.20364186     -0.01706645      0.00000000
    C      0.30140654     -0.32134576      0.00000000
    C      0.97030187      0.25313461      1.24706114
    C      0.47625640     -1.83865930      0.00000000
    C      0.97030187      0.25313461     -1.24706114
    H     -1.20312256      1.97261268     -0.88077101
    H     -2.66796346      1.57178283      0.00000000
    H     -1.20312256      1.97261268      0.88077101
    H     -1.64609469     -0.50135766     -0.87536165
    H     -1.64609469     -0.50135766      0.87536165
    H      0.48878162     -0.11894520      2.15306134
    H      0.92783913      1.34169630      1.26153104
    H      2.02127732     -0.03748189      1.28096144
    H      0.01360776     -2.28235521      0.88291198
    H      1.53346641     -2.10826618      0.00000000
    H      0.01360776     -2.28235521     -0.88291198
    H      0.92783913      1.34169630     -1.26153104
    H      0.48878162     -0.11894520     -2.15306134
    H      2.02127732     -0.03748189     -1.28096144
$end
   
$rem
mem_static = 200
mem_total  = 7500
exchange = b3lyp
basis = G3Large
max_scf_cycles = 50
scf_convergence = 7
symmetry = false
xc_grid = 000075000302
$end
