$molecule
0    1
    C     -2.90219819      0.53664127      0.19736210
    C     -1.61834692     -0.27066980      0.35381623
    C     -0.41264813      0.56935518     -0.06492487
    C      0.93993960     -0.08833522      0.17692524
    C      2.11072107      0.83416493     -0.13775163
    C      3.45874306      0.16556650      0.09703307
    C     -1.71460386     -1.56676679     -0.44391495
    H     -3.04781572      0.81280192     -0.84863208
    H     -3.77275156     -0.03709464      0.51492031
    H     -2.86752148      1.45441072      0.78388934
    H     -1.49747055     -0.52470734      1.41191610
    H     -0.51124511      0.81878106     -1.12720964
    H     -0.44235892      1.51871790      0.47798373
    H      1.03260901     -0.99263914     -0.42836936
    H      1.00413524     -0.40697287      1.22212244
    H      2.03738332      1.16266768     -1.17707456
    H      2.03290123      1.73450523      0.47586048
    H      3.56549062     -0.71982320     -0.52952812
    H      4.28639707      0.83631650     -0.12833111
    H      3.55743551     -0.15061004      1.13536603
    H     -1.79870324     -1.34556921     -1.51009422
    H     -0.84389704     -2.20378005     -0.29987638
    H     -2.59619500     -2.13696061     -0.15148814
$end
   
$rem
mem_static = 200
mem_total  = 7500
exchange = b3lyp
basis = G3Large
max_scf_cycles = 50
scf_convergence = 7
symmetry = false
xc_grid = 000075000302
$end
