$molecule
0    1
    C     -1.38190270      0.43425107     -1.24733879
    C     -0.89611351     -0.30143728      0.00000000
    C      0.63394903     -0.42425405      0.00000000
    C      1.42506442      0.87859690      0.00000000
    C      2.92723238      0.62027859      0.00000000
    C     -1.38190270      0.43425107      1.24733879
    C     -1.48228640     -1.71210170      0.00000000
    H     -1.04362211      1.46982867     -1.26155977
    H     -1.01969966     -0.05525201     -2.15313907
    H     -2.47237231      0.44139972     -1.28199402
    H      0.92928328     -1.01194209     -0.87607916
    H      0.92928328     -1.01194209      0.87607916
    H      1.16198287      1.47416144     -0.87532038
    H      1.16198287      1.47416144      0.87532038
    H      3.22143998      0.04815269     -0.87982621
    H      3.49448914      1.54982523      0.00000000
    H      3.22143998      0.04815269      0.87982621
    H     -1.04362211      1.46982867      1.26155977
    H     -2.47237231      0.44139972      1.28199402
    H     -1.01969966     -0.05525201      2.15313907
    H     -1.15980850     -2.26611011     -0.88295474
    H     -1.15980850     -2.26611011      0.88295474
    H     -2.57293675     -1.67988643      0.00000000
$end
   
$rem
mem_static = 200
mem_total  = 7500
exchange = b3lyp
basis = G3Large
max_scf_cycles = 50
scf_convergence = 7
symmetry = false
xc_grid = 000075000302
$end
