$molecule
0    1
    C     -0.54008527      1.54017537     -0.77439127
    C     -0.54008527      1.54017537      0.77439127
    C     -0.16289357      0.25240464     -1.51225628
    C     -0.16289357      0.25240464      1.51225628
    C      1.30947436     -0.15635827      1.30431420
    C     -1.15044479     -0.89869611      1.28136050
    C     -1.15044479     -0.89869611     -1.28136050
    C      1.30947436     -0.15635827     -1.30431420
    C      1.95054714      0.31441968      0.00000000
    C     -0.96973910     -1.69708316      0.00000000
    H      0.12958683      2.32930608     -1.12465870
    H     -1.53457503      1.82554385     -1.12391556
    H      0.12958683      2.32930608      1.12465870
    H     -1.53457503      1.82554385      1.12391556
    H     -0.26884191      0.50289647     -2.57185585
    H     -0.26884191      0.50289647      2.57185585
    H      1.40698041     -1.24116583      1.39556802
    H      1.90290734      0.26447614      2.11895129
    H     -1.06174589     -1.58897322      2.12468961
    H     -2.16878974     -0.49809609      1.31772059
    H     -1.06174589     -1.58897322     -2.12468961
    H     -2.16878974     -0.49809609     -1.31772059
    H      1.40698041     -1.24116583     -1.39556802
    H      1.90290734      0.26447614     -2.11895129
    H      2.99690967     -0.00017558      0.00000000
    H      1.97138916      1.40667086      0.00000000
    H      0.01578299     -2.16677374      0.00000000
    H     -1.68803536     -2.52008411      0.00000000
$end
   
$rem
mem_static = 200
mem_total  = 7500
exchange = b3lyp
basis = G3Large
max_scf_cycles = 50
scf_convergence = 7
symmetry = false
xc_grid = 000075000302
$end
