$molecule
0    1
    C      0.16170433      0.69113513     -0.78141724
    C      0.16170433      0.69113513      0.78141724
    C     -0.14793111     -0.62619553      1.48274756
    C     -1.57359499     -1.14398639      1.28858596
    C     -1.79068396     -1.92924218      0.00000000
    C     -1.57359499     -1.14398639     -1.28858596
    C     -0.14793111     -0.62619553     -1.48274756
    C      1.54439488      1.23656094     -1.18043106
    C      1.96833410      2.10330180      0.00000000
    C      1.54439488      1.23656094      1.18043106
    H     -0.59144395      1.41131696     -1.11393395
    H     -0.59144395      1.41131696      1.11393395
    H      0.02784999     -0.46780685      2.55022940
    H      0.56878418     -1.39236639      1.17137338
    H     -1.83270107     -1.79311193      2.12749583
    H     -2.26905620     -0.29980844      1.32751827
    H     -2.80538228     -2.33363092      0.00000000
    H     -1.11573216     -2.79062761      0.00000000
    H     -1.83270107     -1.79311193     -2.12749583
    H     -2.26905620     -0.29980844     -1.32751827
    H      0.56878418     -1.39236639     -1.17137338
    H      0.02784999     -0.46780685     -2.55022940
    H      2.24478150      0.40201342     -1.28044827
    H      1.52213679      1.76279371     -2.13451404
    H      1.40431977      3.03889685      0.00000000
    H      3.02929587      2.35021284      0.00000000
    H      1.52213679      1.76279371      2.13451404
    H      2.24478150      0.40201342      1.28044827
$end
   
$rem
mem_static = 200
mem_total  = 7500
exchange = b3lyp
basis = G3Large
max_scf_cycles = 50
scf_convergence = 7
symmetry = false
xc_grid = 000075000302
$end
