$molecule
0    1
    C      0.22851424      0.73340171     -0.72044620
    C     -0.22851424     -0.73340171     -0.72044620
    C     -1.75579365     -0.82242741     -0.71749704
    C      0.40655751     -1.51671200      0.42955791
    C      1.75579365      0.82242741     -0.71749704
    C     -0.40655751      1.51671200      0.42955791
    C     -2.38592294     -0.02946669      0.42514762
    C      1.92928901     -1.42561291      0.38562962
    C      2.38592294      0.02946669      0.42514762
    C     -1.92928901      1.42561291      0.38562962
    H     -0.13587775      1.18810093     -1.64938002
    H      0.13587775     -1.18810093     -1.64938002
    H     -2.06313881     -1.86998046     -0.67013475
    H     -2.13306694     -0.42412136     -1.66435017
    H      0.05434084     -1.13629593      1.39108735
    H      0.08533661     -2.55961127      0.37146056
    H      2.06313881      1.86998046     -0.67013475
    H      2.13306694      0.42412136     -1.66435017
    H     -0.05434084      1.13629593      1.39108735
    H     -0.08533661      2.55961127      0.37146056
    H     -2.10755501     -0.46995519      1.38544500
    H     -3.47357220     -0.08779293      0.35995154
    H      2.36821534     -1.98642743      1.21237232
    H      2.28857031     -1.88786097     -0.53884371
    H      2.10755501      0.46995519      1.38544500
    H      3.47357220      0.08779293      0.35995154
    H     -2.36821534      1.98642743      1.21237232
    H     -2.28857031      1.88786097     -0.53884371
$end
   
$rem
mem_static = 200
mem_total  = 7500
exchange = b3lyp
basis = G3Large
max_scf_cycles = 50
scf_convergence = 7
symmetry = false
xc_grid = 000075000302
$end
