$molecule
0    1
    C      0.14189195     -1.56240206      0.77599712
    C      0.14189195     -1.56240206     -0.77599712
    C      0.17047657     -0.08149177      1.18315395
    C     -0.46423611      0.64794431      0.00000000
    C      0.17047657     -0.08149177     -1.18315395
    C     -0.24606708      2.15001218      0.00000000
    H      0.98391411     -2.11503053      1.18827992
    H     -0.76401882     -2.03634771      1.15189374
    H      0.98391411     -2.11503053     -1.18827992
    H     -0.76401882     -2.03634771     -1.15189374
    H      1.20282929      0.26441888      1.28481944
    H     -0.33558903      0.11107455      2.12881137
    H     -1.53868807      0.43431786      0.00000000
    H     -0.33558903      0.11107455     -2.12881137
    H      1.20282929      0.26441888     -1.28481944
    H      0.82200040      2.37374747      0.00000000
    H     -0.68600865      2.61676772      0.88118988
    H     -0.68600865      2.61676772     -0.88118988
$end
   
$rem
mem_static = 200
mem_total  = 7500
exchange = b3lyp
basis = G3Large
max_scf_cycles = 50
scf_convergence = 7
symmetry = false
xc_grid = 000075000302
$end
