$molecule
0    1
    C      1.33090364      1.04905197     -0.77550377
    C      1.33090364      1.04905197      0.77550377
    C     -0.05282592      0.51719591     -1.18252336
    C     -0.50992468     -0.34521988      0.00000000
    C     -0.05282592      0.51719591      1.18252336
    C     -2.01120539     -0.58635779      0.00000000
    C      0.22946926     -1.68173942      0.00000000
    H      2.11817084      0.40047231     -1.15684109
    H      1.51529615      2.04057976     -1.18451512
    H      2.11817084      0.40047231      1.15684109
    H      1.51529615      2.04057976      1.18451512
    H     -0.03920226     -0.03629557     -2.12260754
    H     -0.75339791      1.34781315     -1.29901641
    H     -0.03920226     -0.03629557      2.12260754
    H     -0.75339791      1.34781315      1.29901641
    H     -2.55467689      0.35946769      0.00000000
    H     -2.31623616     -1.15257576     -0.88150940
    H     -2.31623616     -1.15257576      0.88150940
    H      1.31103766     -1.54707781      0.00000000
    H     -0.03505834     -2.26577815      0.88277235
    H     -0.03505834     -2.26577815     -0.88277235
$end
   
$rem
mem_static = 200
mem_total  = 7500
exchange = b3lyp
basis = G3Large
max_scf_cycles = 50
scf_convergence = 7
symmetry = false
xc_grid = 000075000302
$end
