lattice_vector 1.8838 -3.2629 0.0000
lattice_vector 1.8838 3.2629 0.0000
lattice_vector 0.0000 0.0000 6.1526

atom   1.8838 1.0876 0.0000 Li
atom   1.8838 -1.0876 3.0763 Li
atom   1.8838 1.0876 2.3072 Cl
atom   1.8838 -1.0876 5.3835 Cl
