$molecule
0    1
    C     -0.20513557      0.23577887     -0.50709036
    C      0.87046102     -0.84538682     -0.62483224
    N      0.39964985      1.54064351     -0.29849611
    H      0.50368534      2.03843084     -1.17205459
    H     -0.18385632      2.09312669      0.32015532
    H     -0.82163156      0.18903786     -1.41440075
    C     -1.14370471     -0.06288111      0.64225631
    O     -1.47153310      0.72997496      1.49517888
    O     -1.61420862     -1.32620900      0.57818023
    H     -2.19677890     -1.43549733      1.34628028
    H      0.41724332     -1.81471637     -0.82380779
    H      1.53631645     -0.59440847     -1.44969790
    S      1.81991165     -1.02719748      0.90547087
    H      2.08958117      0.27930385      1.00285783
$end
   
$rem
mem_static = 200
mem_total  = 7500
exchange = b3lyp
basis = G3Large
max_scf_cycles = 50
scf_convergence = 7
symmetry = false
xc_grid = 000075000302
$end
