$molecule
0    1
    H      0.07090579      0.79283996      0.42503519
    H     -0.90040320      0.27601958      1.83684799
    H      0.88522244      0.16837663      1.89406233
    C      0.00326012      0.07220152      1.24929053
    O      0.00542665      0.09892350     -2.42045996
    H     -0.77384072     -0.22414092     -1.93899321
    H      0.75419555     -0.23374173     -1.89895992
    H     -0.04476661     -0.95047853      0.85317705
$end
   
$rem
mem_static = 200
mem_total  = 7500
exchange = b3lyp
basis = G3Large
max_scf_cycles = 50
scf_convergence = 7
symmetry = false
xc_grid = 000075000302
$end
