$molecule
0    1
    H      0.00162999     -1.32368958     -0.56342799
   Li     -0.00153635     -0.16771219      0.62510253
    C     -0.00019233     -0.43699673     -1.32962338
    C     -0.00062784      0.89418223     -1.18564140
    H     -0.00019834     -0.11324987      2.58466072
    H      0.00175961      0.62455765      2.38314174
    H     -0.00176539     -0.90760882     -2.31838776
    H      0.00093065      1.43051730     -0.19582446
$end
   
$rem
mem_static = 200
mem_total  = 7500
exchange = b3lyp
basis = G3Large
max_scf_cycles = 50
scf_convergence = 7
symmetry = false
xc_grid = 000075000302
$end
