$molecule
0    2
    H     -0.90990786      1.01565805      0.23476185
   Mg      0.61022747      0.00081143      1.10624304
    P      0.69205969      0.00108415     -1.72237531
    H      1.80048021     -0.00733579     -0.73927245
    B     -0.89659947      0.00043470     -0.50234576
    H      1.52446611      0.00362274      2.53314397
    H     -1.91091603      0.00146096     -1.14365058
    H     -0.90981012     -1.01573624      0.23349525
$end
   
$rem
mem_static = 200
mem_total  = 7500
exchange = b3lyp
basis = G3Large
max_scf_cycles = 50
scf_convergence = 7
symmetry = false
xc_grid = 000075000302
$end
