$molecule
0    1
   Li     -0.05597876      0.13293393     -0.75008752
    H     -0.04548320     -1.51816824      1.57508652
   Li      0.00049794      1.88627423      0.73236096
    B     -0.01527211     -0.29524825      1.56400437
    H      0.05780676     -0.73622860     -2.62180854
    H      0.07363009     -1.37750139     -2.21862812
    H     -0.03964195      1.87879001     -1.02794944
    H      0.02444122      0.02914831      2.74702175
$end
   
$rem
mem_static = 200
mem_total  = 7500
exchange = b3lyp
basis = G3Large
max_scf_cycles = 50
scf_convergence = 7
symmetry = false
xc_grid = 000075000302
$end
