$molecule
0    2
    C     -1.03792391      0.02262906      1.12514056
   Mg     -0.80366513      0.00429457     -0.98692281
    H     -1.80944858      0.04254070      1.91105202
    H     -1.32219522     -0.03343728     -2.62480907
    F      0.20974295     -0.00300543      1.82882084
    H      1.36888060      0.00855742      0.37823853
    H      2.12885653     -0.06504766     -1.03054236
    O      1.26575277      0.02346863     -0.60097771
$end
   
$rem
mem_static = 200
mem_total  = 7500
exchange = b3lyp
basis = G3Large
max_scf_cycles = 50
scf_convergence = 7
symmetry = false
xc_grid = 000075000302
$end
