$molecule
0    2
    H      0.24523418     -2.48215366      1.09184800
    H     -0.19657003     -0.42906497     -1.69365849
    H      0.29428047     -2.67838184      0.36186241
    H     -0.95611759      1.95992338     -0.43014049
   Li     -0.21696945     -0.71138949     -0.07208621
    F     -0.12046273      0.79244509      1.07933504
    H      0.96056345      1.76457639     -0.41394702
    C     -0.00995831      1.78404509      0.07678673
$end
   
$rem
mem_static = 200
mem_total  = 7500
exchange = b3lyp
basis = G3Large
max_scf_cycles = 50
scf_convergence = 7
symmetry = false
xc_grid = 000075000302
$end
