$molecule
0    2
    H     -1.85743098     -0.92803092     -1.42789368
   Li      0.71393540     -1.12212381      0.89438342
    H     -1.00544678     -1.34303338      1.22546478
   Na     -1.06844184      0.70018369      0.74144057
    H     -1.96609435     -0.47603227     -2.02363515
    H      2.09071727      1.34856852      0.97255502
    H      1.67590385      1.07184070     -0.70678578
    C      1.41685744      0.74862747      0.32447081
$end
   
$rem
mem_static = 200
mem_total  = 7500
exchange = b3lyp
basis = G3Large
max_scf_cycles = 50
scf_convergence = 7
symmetry = false
xc_grid = 000075000302
$end
