$molecule
0    1
    P      0.83009388      0.04278795      0.31535553
    H      0.92559869      0.17562360     -1.11819832
    H      1.23795168      2.31997697      0.13558502
    H      0.56686874      2.43225669     -0.21122162
    F      0.61992451     -1.77603068      0.20081092
   Al     -1.81740812      0.38070179      0.24024832
    H     -0.66767612     -1.89900549      0.21071302
    F     -1.69535326     -1.67631084      0.22670714
$end
   
$rem
mem_static = 200
mem_total  = 7500
exchange = b3lyp
basis = G3Large
max_scf_cycles = 50
scf_convergence = 7
symmetry = false
xc_grid = 000075000302
$end
