$molecule
0    1
    H      0.00975800      3.00240571     -0.27165378
    H     -0.10671752     -0.18541491      1.48442236
    H      0.01728294      2.45783483     -0.79096712
    H     -0.02762491      0.36794633      0.95999693
    H     -1.56478982     -1.52200705     -0.47525180
   Al      0.02107714     -1.38176584     -0.31160456
    H      0.82795354     -0.35599567     -1.24244185
    H      0.82306062     -2.38300340      0.64749982
$end
   
$rem
mem_static = 200
mem_total  = 7500
exchange = b3lyp
basis = G3Large
max_scf_cycles = 50
scf_convergence = 7
symmetry = false
xc_grid = 000075000302
$end
