$molecule
0    1
    H      0.04462965      1.67381814      1.77187394
    H     -0.04312737      1.52853495      2.50793509
    H     -1.09895828     -0.13217221     -0.60981504
    H      0.19966628     -1.67669538     -0.87600416
    H      0.90557439      0.20531281     -0.56506171
    H     -0.00837625     -0.27110720     -2.29869880
   Na      0.00104088     -0.86396614      1.17311019
    B     -0.00044930     -0.46372497     -1.10333951
$end
   
$rem
mem_static = 200
mem_total  = 7500
exchange = b3lyp
basis = G3Large
max_scf_cycles = 50
scf_convergence = 7
symmetry = false
xc_grid = 000075000302
$end
