$molecule
0    1
   Cl     -2.71903570      0.67420464      0.40486213
    H      1.07714776      1.95795932      1.46099510
    F      0.44631295     -1.71830839      0.55277848
    H     -0.40795837     -1.30210370     -1.81803222
   Mg     -0.74868026     -0.38145914      0.28329831
    S      1.31963553      1.31271805      0.28694443
    H     -0.94622867     -0.82066966     -2.05402365
    H      1.97880676      0.27765888      0.88317743
$end
   
$rem
mem_static = 200
mem_total  = 7500
exchange = b3lyp
basis = G3Large
max_scf_cycles = 50
scf_convergence = 7
symmetry = false
xc_grid = 000075000302
$end
