$molecule
0    1
    H     -2.60483860      1.13504005     -0.54856559
   Cl     -0.67501765     -2.04761658      0.03845875
    H     -2.78320228      1.16305720      0.18171617
    H     -0.59275195     -0.75603747      0.13397657
    H      3.05733007     -0.86862537     -0.17726399
    H      2.47605377     -1.34684152     -0.16157277
    H      0.86939218      1.14454002      0.25565645
    H      0.25303445      1.57648367      0.27759442
$end
   
$rem
mem_static = 200
mem_total  = 7500
exchange = b3lyp
basis = G3Large
max_scf_cycles = 50
scf_convergence = 7
symmetry = false
xc_grid = 000075000302
$end
