$molecule
0    1
    H      1.34369197      0.86624847      1.10162531
    O     -1.01219874      0.21484209      0.77392909
   Mg     -0.73068022      0.35648143     -1.01849719
    H     -0.53776402      0.58269967     -2.69360070
    H      2.07126948      1.07789623      1.08492928
    H     -1.36541483      0.60968311      1.57441725
    H     -0.01195109     -1.72672890     -0.07584520
    H      0.24304745     -1.98112209     -0.74695784
$end
   
$rem
mem_static = 200
mem_total  = 7500
exchange = b3lyp
basis = G3Large
max_scf_cycles = 50
scf_convergence = 7
symmetry = false
xc_grid = 000075000302
$end
