$molecule
0    1
    H      0.08529597     -0.02655163      1.60711786
    H      0.90656070     -0.78582055     -1.39860770
   Be     -0.05035414      0.92778026     -0.02639207
    H      0.07900667      0.71807476      1.80526025
    F     -0.04624068     -1.68576519      0.17899676
    C     -0.00460556     -0.62156934     -0.79460642
    H     -0.11622707      2.26789734      0.10894675
    H     -0.85343589     -0.79404564     -1.48071543
$end
   
$rem
mem_static = 200
mem_total  = 7500
exchange = b3lyp
basis = G3Large
max_scf_cycles = 50
scf_convergence = 7
symmetry = false
xc_grid = 000075000302
$end
