$molecule
0    1
    H      1.58720282      0.76731902     -0.08146576
   Al      0.10972639     -0.00217964     -3.33907875
    C      0.83126257     -0.00386144     -0.30699323
    H     -0.06418237      0.20396249      0.30375481
    O      0.51210385     -0.00351374     -1.67396774
    H     -2.37087103     -0.13779428      2.77035212
    H      1.23610090     -0.98288352      0.00087520
    H     -1.84134313      0.15895110      2.32652336
$end
   
$rem
mem_static = 200
mem_total  = 7500
exchange = b3lyp
basis = G3Large
max_scf_cycles = 50
scf_convergence = 7
symmetry = false
xc_grid = 000075000302
$end
