$molecule
0    1
    H     -1.25215357     -1.85345669     -0.33302528
    N     -0.76190278     -1.05649950      0.08232657
    H      0.19878820      3.23042597      0.48523388
    F     -1.49143510      0.10443069     -0.20943295
    H      1.01565163     -2.01529963     -0.01366438
    C      0.60838635     -0.97542010     -0.08808276
    H      0.40273921      2.53854008      0.26868011
    O      1.27992607      0.02727917     -0.19203518
$end
   
$rem
mem_static = 200
mem_total  = 7500
exchange = b3lyp
basis = G3Large
max_scf_cycles = 50
scf_convergence = 7
symmetry = false
xc_grid = 000075000302
$end
