$molecule
0    1
    H      1.20389196     -0.01965428     -0.43467589
    F      0.00734194      2.05460098     -0.03056823
    N      0.80490118     -0.96799655     -0.51245988
    B     -0.00943560     -1.34384039      0.59484100
    H     -1.16882143     -0.00061439     -0.46221490
    H     -0.02261443      2.92908997     -0.35926427
    N     -0.78764063     -0.95420823     -0.52846863
    H     -0.02762299     -1.69737711      1.73281081
$end
   
$rem
mem_static = 200
mem_total  = 7500
exchange = b3lyp
basis = G3Large
max_scf_cycles = 50
scf_convergence = 7
symmetry = false
xc_grid = 000075000302
$end
