$molecule
0    1
    H     -1.79586964      0.19475840     -1.63716600
    H     -1.87248474      0.20901242      1.32440574
   Li     -0.30220618      0.18925293     -0.11544935
    H      2.12816919     -1.18755203     -0.39036554
    H     -1.11696827      0.18928838     -1.97727564
    H     -1.21282258      0.10096655      1.68698234
    P      2.04122903      0.23735349     -0.16205903
    H      2.13095320      0.06691987      1.27092748
$end
   
$rem
mem_static = 200
mem_total  = 7500
exchange = b3lyp
basis = G3Large
max_scf_cycles = 50
scf_convergence = 7
symmetry = false
xc_grid = 000075000302
$end
