$molecule
0    1
    N     -0.00043705      0.74100140      0.26683768
    H     -0.87766461      0.40331437     -1.59649926
    C     -0.00015876      0.01764674      1.31068007
    H     -0.00092152     -1.09161122      1.29019772
    H      0.88605581      0.39236629     -1.58950242
    C     -0.00025539      0.07093889     -1.02101159
    H      0.00045703      0.50215966      2.29476220
    H     -0.00707551     -1.03581612     -0.95546439
$end
   
$rem
mem_static = 200
mem_total  = 7500
exchange = b3lyp
basis = G3Large
max_scf_cycles = 50
scf_convergence = 7
symmetry = false
xc_grid = 000075000302
$end
