$molecule
0    1
    H      0.05610040      2.01017629      1.01867917
    H      0.65296243     -3.13235403     -0.03170441
    H     -1.34027927      1.07606935     -0.02551239
   Mg     -1.18412654     -0.88210398      0.05254777
    H      0.10347771      1.96128968     -1.04827099
    C      0.53490924     -2.04611337     -0.01929471
    B     -0.09868643      1.38530174     -0.00459521
   Al      1.27564247     -0.37226569      0.05815077
$end
   
$rem
mem_static = 200
mem_total  = 7500
exchange = b3lyp
basis = G3Large
max_scf_cycles = 50
scf_convergence = 7
symmetry = false
xc_grid = 000075000302
$end
