$molecule
0    1
    H      1.46257930     -1.04735664      0.53145702
    N     -1.68304016      0.00002472      0.47640746
    H     -0.53958193     -0.94080523     -1.17930474
    C     -0.47763026     -0.00046434     -0.63465117
    B      0.87952217     -0.00008231      0.47441183
    C     -0.56155550     -0.00092638      0.97816917
    H      1.45856890      1.04942485      0.53239317
    H     -0.53886252      0.94018532     -1.17888275
$end
   
$rem
mem_static = 200
mem_total  = 7500
exchange = b3lyp
basis = G3Large
max_scf_cycles = 50
scf_convergence = 7
symmetry = false
xc_grid = 000075000302
$end
