$molecule
0    1
    H      0.00221049     -2.06813368      1.11783915
    H     -0.00124958     -1.85497599      1.84153415
    H     -0.97077019      0.78551935     -1.71495264
    H      0.20884255     -0.52154295     -1.53802958
    H      0.76074872      1.14325516     -1.76868354
    H     -0.00130677      1.16457491      2.50684702
    C      0.00062431      0.52523891     -1.26404985
   Mg      0.00090047      0.82606429      0.81949529
$end
   
$rem
mem_static = 200
mem_total  = 7500
exchange = b3lyp
basis = G3Large
max_scf_cycles = 50
scf_convergence = 7
symmetry = false
xc_grid = 000075000302
$end
