$molecule
0    1
    H      0.74841526      1.26851439      0.59881760
    C     -0.16354635      0.74665334      0.30939783
    H      0.74848732     -1.26857143      0.59856470
    C     -0.16355938     -0.74663362      0.30935158
    H      1.21140785      0.00003795     -1.60314809
    H     -1.08115205      1.25625081      0.60788288
    P     -0.21890278      0.00003857     -1.42859784
    H     -1.08114987     -1.25629002      0.60773134
$end
   
$rem
mem_static = 200
mem_total  = 7500
exchange = b3lyp
basis = G3Large
max_scf_cycles = 50
scf_convergence = 7
symmetry = false
xc_grid = 000075000302
$end
