$molecule
0    2
    H     -0.83798381     -0.00198698     -1.21531342
    H     -0.72208699     -1.33557372      0.91882621
    S      0.18055538      1.79340684      0.12629667
    H     -0.96792822      1.68130475      0.84731662
    C      0.08548886      0.04291386     -0.62690165
    C      0.17600977     -0.97899646      0.41342317
    H      0.94490981      0.03940501     -1.31056218
    H      1.14103520     -1.24047330      0.84691458
$end
   
$rem
mem_static = 200
mem_total  = 7500
exchange = b3lyp
basis = G3Large
max_scf_cycles = 50
scf_convergence = 7
symmetry = false
xc_grid = 000075000302
$end
