$molecule
0    1
    S      0.55134705      0.15994868      1.86661504
    H      0.82673889      0.24692314     -0.57141687
    H     -1.77086368      0.03213459     -0.89640482
    H     -2.46196624      0.14551925     -0.61502211
    H      1.63670698     -0.62962754      2.08891777
    O      0.76813987      0.04361374     -1.52814952
    H     -0.24346074     -0.91260800      1.60757451
    H      0.69335787      0.91409615     -1.95211400
$end
   
$rem
mem_static = 200
mem_total  = 7500
exchange = b3lyp
basis = G3Large
max_scf_cycles = 50
scf_convergence = 7
symmetry = false
xc_grid = 000075000302
$end
