$molecule
0    2
    H      0.08881724      3.89441748      1.16418383
    H     -0.20197473      1.69807309     -0.81819860
    H     -0.17992920     -0.03295840      0.71142633
    H     -0.23809184      1.05827485     -1.21439665
    H      0.75281621     -1.02615399      1.41401263
    H      0.06331455     -2.52706902     -1.60650783
    O     -0.18729032     -0.82369207      1.27684279
    H     -0.09766191     -2.24089194     -0.92736250
$end
   
$rem
mem_static = 200
mem_total  = 7500
exchange = b3lyp
basis = G3Large
max_scf_cycles = 50
scf_convergence = 7
symmetry = false
xc_grid = 000075000302
$end
