$molecule
0    2
    C      0.18239422      0.81792233     -0.17288505
    H     -2.32612674      0.04030568      1.01173555
    H      2.24798409      0.73105257     -0.01871065
    C      1.34005225      0.10818896     -0.12066155
    H      0.11379075      1.91914026     -0.21132739
   Si     -1.43329144     -0.14151612     -0.20061359
    H     -1.02937439     -1.64028587     -0.13873129
   Li      0.90457126     -1.83480782     -0.14880602
$end
   
$rem
mem_static = 200
mem_total  = 7500
exchange = b3lyp
basis = G3Large
max_scf_cycles = 50
scf_convergence = 7
symmetry = false
xc_grid = 000075000302
$end
