$molecule
0    1
    H      1.06844649     -0.58046556     -0.74196077
    H      0.41166001      2.33272643     -0.13661116
    N      0.66243110     -1.01916185      0.09051143
    H      1.06784259     -0.56710110      0.91046165
    H     -1.08214107      0.00100043     -0.30813377
    H     -0.17773121      2.33484239      0.33087981
    H     -1.18874823     -1.65009311     -0.30768373
    N     -0.76175967     -0.85174763      0.16253653
$end
   
$rem
mem_static = 200
mem_total  = 7500
exchange = b3lyp
basis = G3Large
max_scf_cycles = 50
scf_convergence = 7
symmetry = false
xc_grid = 000075000302
$end
