$molecule
0    2
    N      0.85218084      0.06581153      1.54292621
    C     -0.45432170      0.04015851      1.51126564
    H      0.51388727     -1.04630375     -1.15231090
    H     -1.27127711     -0.21181290      2.19239024
    H      0.93075122      0.61434101     -1.62996923
    C      0.02562885      0.43731100      0.29642141
    C      0.17679196      0.00817393     -1.10677154
    H     -0.77364133      0.09232067     -1.65395184
$end
   
$rem
mem_static = 200
mem_total  = 7500
exchange = b3lyp
basis = G3Large
max_scf_cycles = 50
scf_convergence = 7
symmetry = false
xc_grid = 000075000302
$end
