$molecule
0    1
    C      0.02368355      0.21160820      1.50283087
    F     -0.01077833     -0.12499278      2.81646642
    C      0.01565936     -0.69899108      0.53723681
    H     -0.01948508     -1.76596891      0.75530983
    H      0.05707451      1.29461514      1.36648897
    H     -0.06042526      0.82668999     -3.60133819
    H      0.04680440     -0.37321253     -0.50113219
    H     -0.05253314      0.63025196     -2.87586253
$end
   
$rem
mem_static = 200
mem_total  = 7500
exchange = b3lyp
basis = G3Large
max_scf_cycles = 50
scf_convergence = 7
symmetry = false
xc_grid = 000075000302
$end
