$molecule
0    2
    H     -0.33807547     -0.61618336     -1.71734282
    H     -0.51607548     -1.41691161      3.53590147
    H      0.85451289      0.86480136      1.11472623
    F     -0.06618286     -0.78464170      3.01794105
    O     -0.05334461     -1.08501059     -2.52700205
    H     -0.25774164     -0.45846572     -3.24036415
    P     -0.14993212      1.15061422      0.12732542
    H      0.52683929      2.34579740     -0.31118516
$end
   
$rem
mem_static = 200
mem_total  = 7500
exchange = b3lyp
basis = G3Large
max_scf_cycles = 50
scf_convergence = 7
symmetry = false
xc_grid = 000075000302
$end
