$molecule
0    2
    H      0.77977908     -0.86959061      2.30096051
    H      1.36680613      0.81444154      0.79211200
    S     -0.15235239      0.06799057      1.98481037
    H     -0.29324072      1.79667031     -1.11976041
    H     -0.34614037     -1.56520327     -1.56207478
   Li      0.22684286      0.02324171     -0.24501872
    H     -0.62325038     -1.73321269     -0.87627819
    H     -0.95844421      1.46566243     -1.27475077
$end
   
$rem
mem_static = 200
mem_total  = 7500
exchange = b3lyp
basis = G3Large
max_scf_cycles = 50
scf_convergence = 7
symmetry = false
xc_grid = 000075000302
$end
