$molecule
0    1
    P     -1.07997575      1.52904331      0.01500916
    H      1.36241659      2.20105267      0.39032552
    C      0.65018127      1.39047591      0.18507680
    O      1.22266948      0.16875474      0.02427980
    O     -0.71288622     -1.92662928      0.39370124
    H     -0.91453876     -1.80075829      1.33567266
   Si     -0.33372617     -0.54768072     -0.46663069
    H     -0.19414045     -1.01425833     -1.87743448
$end
   
$rem
mem_static = 200
mem_total  = 7500
exchange = b3lyp
basis = G3Large
max_scf_cycles = 50
scf_convergence = 7
symmetry = false
xc_grid = 000075000302
$end
