$molecule
0    2
    C     -1.20657763     -0.70601862     -0.47902494
   Si     -0.81745554     -0.45136049      1.49909452
    C     -0.98753834      0.57227647     -0.43815234
    P     -0.93141425      1.80379912      0.76158600
    H     -1.49518963     -1.51796594     -1.13814261
    H      0.72090304     -0.54361267      1.49505562
    H      2.48115711      0.27967435     -0.52428624
    H      2.23611525      0.56320779     -1.17613001
$end
   
$rem
mem_static = 200
mem_total  = 7500
exchange = b3lyp
basis = G3Large
max_scf_cycles = 50
scf_convergence = 7
symmetry = false
xc_grid = 000075000302
$end
