$molecule
0    1
    C      0.07544452     -1.07517564      0.11599098
    H     -0.62964488      2.26298152     -0.08867661
    H     -1.68614798      0.05772377     -0.04635610
    C     -0.59495536      0.08806078      0.02251191
    C      0.73887134     -2.16855361      0.65447604
    C      0.07877905      1.40483033     -0.01320389
    C      0.73299845     -2.14662743     -0.68241827
    O      1.28465485      1.57676028      0.03767594
$end
   
$rem
mem_static = 200
mem_total  = 7500
exchange = b3lyp
basis = G3Large
max_scf_cycles = 50
scf_convergence = 7
symmetry = false
xc_grid = 000075000302
$end
