$molecule
0    1
    H      0.64848837     -1.47777944     -0.13722079
    H     -0.62659319     -0.18589907     -3.09889701
    H     -0.40093504     -0.71477424     -2.61127968
    H      0.74471955      0.82794082      2.20080074
    H      0.41683660     -1.04543565      0.48241850
    H     -0.86872863      0.85705679      2.13389341
   Na      0.12711321      1.09566013     -0.53418018
    N     -0.04090086      0.64323065      1.56446501
$end
   
$rem
mem_static = 200
mem_total  = 7500
exchange = b3lyp
basis = G3Large
max_scf_cycles = 50
scf_convergence = 7
symmetry = false
xc_grid = 000075000302
$end
