$molecule
0    1
    H     -0.08707657      0.03501812      1.13892290
    O      0.16724785     -0.10403904      2.07555972
    H     -0.72102607      1.20062677     -1.41513894
    H     -0.67253303     -0.06795062      2.56158453
    B      0.11588562     -0.80177483     -1.22336265
    H      0.09545750     -1.97891583     -1.31925206
    C      0.11937260      0.57780226     -1.09450176
    H      0.98267211      1.13923318     -0.72381174
$end
   
$rem
mem_static = 200
mem_total  = 7500
exchange = b3lyp
basis = G3Large
max_scf_cycles = 50
scf_convergence = 7
symmetry = false
xc_grid = 000075000302
$end
