$molecule
0    1
    C      0.54557586      0.87485674     -0.18938765
    H     -0.54646902      0.91635188     -0.16044385
    C      1.25684376     -0.24474630      0.40047084
    H      1.67325404     -0.76915348      1.26098575
    H      1.05880051      1.81893266     -0.38915974
    H     -2.52967758     -0.86797442     -0.32939885
    N      1.16537721     -0.39595957     -0.84734849
    H     -2.62370479     -1.33230749      0.25428199
$end
   
$rem
mem_static = 200
mem_total  = 7500
exchange = b3lyp
basis = G3Large
max_scf_cycles = 50
scf_convergence = 7
symmetry = false
xc_grid = 000075000302
$end
