$molecule
0    1
    C      0.48504166     -1.20675010     -0.07804900
    H      0.62301481     -2.29971721     -0.13105805
    H      1.39179153     -0.59005898     -0.02144565
    H     -0.11817833      2.51940012      0.74663000
    N     -0.64349472     -0.61505774     -0.07968863
    H     -1.42906517     -1.27839375     -0.14207514
    H     -0.37219004      1.29222183     -0.15099856
    O      0.06308026      2.17835583     -0.14331498
$end
   
$rem
mem_static = 200
mem_total  = 7500
exchange = b3lyp
basis = G3Large
max_scf_cycles = 50
scf_convergence = 7
symmetry = false
xc_grid = 000075000302
$end
