$molecule
0    1
    H     -1.20135327     -0.34977178      1.95137567
    H     -1.60699834      0.51292526     -0.73087369
    C     -0.51899333     -0.11002707      1.14441328
    C     -0.78391502     -0.07177357     -0.29701279
    H      2.28040933      0.77156307      0.84329963
    F      0.44812564     -0.01870320     -2.34836839
   Si      1.13283128     -0.15359560      0.54452151
    C      0.24989371     -0.58061712     -1.10735522
$end
   
$rem
mem_static = 200
mem_total  = 7500
exchange = b3lyp
basis = G3Large
max_scf_cycles = 50
scf_convergence = 7
symmetry = false
xc_grid = 000075000302
$end
