$molecule
0    1
    H     -0.93807581      0.06515562     -1.17551539
    C     -0.00010020     -0.00174188      1.01117118
    C     -0.00047852      0.00180039     -0.61791761
    C      0.08813626      1.20922241      0.46731978
    C     -0.09060604     -1.21224786      0.46524168
    H      0.60140583     -2.04992379      0.50969254
    H      0.93676099     -0.06393980     -1.17578724
    H     -0.59704251      2.05167491      0.51579506
$end
   
$rem
mem_static = 200
mem_total  = 7500
exchange = b3lyp
basis = G3Large
max_scf_cycles = 50
scf_convergence = 7
symmetry = false
xc_grid = 000075000302
$end
