$molecule
0    1
    H     -0.78385247     -0.64452365     -0.18669880
    C      0.22109045     -1.04002061     -0.03364011
    H     -2.71383904      1.18451230     -0.06834177
    H      0.29325206     -2.11915260      0.10671438
    H      1.52541048      1.45702877     -0.20508381
   Si      1.61141884     -0.02072215     -0.01398162
    H     -3.14388970      1.73584003      0.20779469
    H      2.99040937     -0.55296209      0.19323703
$end
   
$rem
mem_static = 200
mem_total  = 7500
exchange = b3lyp
basis = G3Large
max_scf_cycles = 50
scf_convergence = 7
symmetry = false
xc_grid = 000075000302
$end
