$molecule
0    1
    C     -4.18240277      1.28467790      0.00000000
    C     -5.32577121      0.48306742      0.00000000
    C     -5.20760255     -0.92074295      0.00000000
    C     -3.96240189     -1.55927761      0.00000000
    C     -2.82499137     -0.74899436      0.00000000
    C     -2.92922127      0.66495898      0.00000000
    C     -1.56630282      1.21364342      0.00000000
    C     -0.68373981      0.00288452      0.00000000
    N     -1.48517495     -1.11879768      0.00000000
    O     -1.17242232      2.38505846      0.00000000
    C      0.68373981     -0.00288452      0.00000000
    N      1.48517495      1.11879768      0.00000000
    C      2.82499137      0.74899436      0.00000000
    C      2.92922127     -0.66495898      0.00000000
    C      1.56630282     -1.21364342      0.00000000
    C      3.96240189      1.55927761      0.00000000
    C      5.20760255      0.92074295      0.00000000
    C      5.32577121     -0.48306742      0.00000000
    C      4.18240277     -1.28467790      0.00000000
    O      1.17242232     -2.38505846      0.00000000
    H     -4.24809386      2.37066217      0.00000000
    H     -6.31307561      0.93854755      0.00000000
    H     -6.10977173     -1.52954722      0.00000000
    H     -3.88646289     -2.64439444      0.00000000
    H     -1.10297684     -2.05678104      0.00000000
    H      1.10297684      2.05678104      0.00000000
    H      3.88646289      2.64439444      0.00000000
    H      6.10977173      1.52954722      0.00000000
    H      6.31307561     -0.93854755      0.00000000
    H      4.24809386     -2.37066217      0.00000000
$end
   
$rem
mem_static = 200
mem_total  = 7500
exchange = b3lyp
basis = G3Large
max_scf_cycles = 50
scf_convergence = 7
symmetry = false
xc_grid = 000075000302
$end
