$molecule
0    1
    C      4.13676481      1.30100715      0.00000000
    C      2.86461024      0.68434502      0.00000000
    C      2.72850969     -0.76399212      0.00000000
    C      3.88417921     -1.55761806      0.00000000
    C      5.12679875     -0.92341079      0.00000000
    C      5.26048287      0.49032258      0.00000000
    C      1.54292658      1.15989284      0.00000000
    C      0.69639845     -0.03668604      0.00000000
    N      1.41057069     -1.18098475      0.00000000
    C     -0.69639845      0.03668604      0.00000000
    C     -1.54292658     -1.15989284      0.00000000
    C     -2.86461024     -0.68434502      0.00000000
    C     -2.72850969      0.76399212      0.00000000
    N     -1.41057069      1.18098475      0.00000000
    C     -4.13676481     -1.30100715      0.00000000
    C     -5.26048287     -0.49032258      0.00000000
    C     -5.12679875      0.92341079      0.00000000
    C     -3.88417921      1.55761806      0.00000000
    O     -1.06700193     -2.39320841      0.00000000
    O      1.06700193      2.39320841      0.00000000
    H     -4.22220932     -2.38546210      0.00000000
    H     -6.25394961     -0.93146729      0.00000000
    H     -6.02812852      1.53411494      0.00000000
    H     -3.80395577      2.64225741      0.00000000
    H     -0.05933246     -2.31772012      0.00000000
    H      0.05933246      2.31772012      0.00000000
    H      3.80395577     -2.64225741      0.00000000
    H      6.02812852     -1.53411494      0.00000000
    H      6.25394961      0.93146729      0.00000000
    H      4.22220932      2.38546210      0.00000000
$end
   
$rem
mem_static = 200
mem_total  = 7500
exchange = b3lyp
basis = G3Large
max_scf_cycles = 50
scf_convergence = 7
symmetry = false
xc_grid = 000075000302
$end
