$molecule
0    1
    C     -4.12621734     -0.75299504      0.22995902
    C     -4.34216276      0.30068442     -0.66648730
    C     -3.26163160      1.10944289     -1.03590738
    C     -1.98113128      0.87703818     -0.52890418
    C     -1.76793133     -0.18223427      0.37047553
    C     -2.85438539     -0.99390854      0.74960600
    N     -0.48840726     -0.49237164      0.85790509
    N      0.48840726      0.49237164      0.85790509
    C      1.76793133      0.18223427      0.37047553
    C      2.85438539      0.99390854      0.74960600
    C      4.12621734      0.75299504      0.22995902
    C      4.34216276     -0.30068442     -0.66648730
    C      3.26163160     -1.10944289     -1.03590738
    C      1.98113128     -0.87703818     -0.52890418
    H     -0.46915335     -1.11917594      1.65844132
    H      0.46915335      1.11917594      1.65844132
    H     -4.95482961     -1.39035405      0.53363851
    H     -5.33568969      0.48917981     -1.06661046
    H     -3.41234194      1.93274681     -1.73214754
    H     -1.14154215      1.50162205     -0.81976782
    H     -2.69408945     -1.81388569      1.44979921
    H      2.69408945      1.81388569      1.44979921
    H      4.95482961      1.39035405      0.53363851
    H      5.33568969     -0.48917981     -1.06661046
    H      3.41234194     -1.93274681     -1.73214754
    H      1.14154215     -1.50162205     -0.81976782
$end
   
$rem
mem_static = 200
mem_total  = 7500
exchange = b3lyp
basis = G3Large
max_scf_cycles = 50
scf_convergence = 7
symmetry = false
xc_grid = 000075000302
$end
