$molecule
0    1
    C     -3.24936175     -0.21218249      0.19088176
    C     -3.01801114     -0.08026017      1.55311169
    C     -1.71870159      0.14307692      2.04650089
    C     -0.65890523      0.23737714      1.15805065
    C     -0.85035991      0.11081435     -0.24008280
    C     -2.18086158     -0.12718678     -0.72204179
    C      0.25736839      0.19289343     -1.20090865
    O     -2.46179271     -0.27740408     -2.02665246
    O      0.06375214      0.02152297     -2.42105852
    C      1.68699653      0.51391149     -0.73639638
    C      1.82964702      1.96164591     -0.23658233
    C      2.26430748     -0.53773138      0.24139604
    O      2.83801016     -0.21851086      1.26502814
    C      2.09562437     -1.98435014     -0.18481018
    H     -4.24729683     -0.39006592     -0.20169147
    H     -3.85485186     -0.15174408      2.24553323
    H     -1.54519161      0.24144452      3.11499705
    H      0.33770494      0.41128685      1.54860102
    H     -1.58910208     -0.20425642     -2.50898707
    H      2.28669104      0.39798229     -1.65100727
    H      1.23053359      2.14235332      0.66004417
    H      1.50728295      2.65824915     -1.01949885
    H      2.87800858      2.15978063      0.01118431
    H      2.38147701     -2.11343054     -1.23712080
    H      1.03193644     -2.25389045     -0.10956157
    H      2.68509566     -2.64132566      0.46107120
$end
   
$rem
mem_static = 200
mem_total  = 7500
exchange = b3lyp
basis = G3Large
max_scf_cycles = 50
scf_convergence = 7
symmetry = false
xc_grid = 000075000302
$end
