$molecule
0    1
    C     -1.35638502      2.12762621     -0.65400746
    C     -2.65222374      1.75563027     -0.29276677
    C     -2.90548493      0.45405455      0.15305790
    C     -1.86072226     -0.46748314      0.22049908
    C     -0.53965992     -0.11126135     -0.11199581
    C     -0.30606653      1.21168810     -0.54805946
    H     -1.13870699      3.12500361     -1.02877523
    H     -3.46206585      2.47839115     -0.36727537
    H     -3.91249829      0.15544828      0.43508518
    H     -2.06609735     -1.48037986      0.55675978
    C      0.57310977     -1.12021918     -0.00101029
    O      0.93850020      1.60889597     -1.01312379
    C      1.92816923      2.11102780     -0.15339775
    O      2.98828557      2.39775259     -0.63506684
    C      1.53428754      2.27454695      1.29711188
    O      1.68962990     -0.79739637      0.37474856
    C      0.23943852     -2.56023325     -0.39122636
    C      1.46196240     -3.48020975     -0.42960640
    H      0.61925398      2.87261860      1.38870142
    H      2.35794282      2.75880051      1.82629065
    H      1.34094602      1.28633329      1.72798736
    H     -0.27868073     -2.53555226     -1.36139784
    H     -0.50587832     -2.93971693      0.32543632
    H      2.19582668     -3.11674170     -1.15804865
    H      1.16125542     -4.49773850     -0.70781476
    H      1.95586188     -3.51088560      0.54789466
$end
   
$rem
mem_static = 200
mem_total  = 7500
exchange = b3lyp
basis = G3Large
max_scf_cycles = 50
scf_convergence = 7
symmetry = false
xc_grid = 000075000302
$end
