$molecule
0    1
    C      0.29912471      1.23719711     -0.81404407
    C     -0.28331133     -0.06441532     -1.41453380
    C      0.00795466     -1.42104197     -0.74800774
    C      0.08755389     -1.21568944      0.83348330
    C     -0.17912151      0.21718502      1.44615358
    C     -0.31952574      1.53772247      0.55665451
    C     -0.06855125      1.92162776     -2.17123522
    C      0.02111739      0.49892018     -2.83524563
    C     -1.80192793     -0.46377050     -1.32923950
    C     -1.32606401     -1.94332460     -1.31233075
    C      1.36584859     -2.15432217     -0.72442801
    C      1.48332565     -1.89816707      0.80798770
    C     -1.00663841     -1.78073678      1.77854151
    C     -1.42423258     -0.34130708      2.18303778
    C      0.87457677      0.95056155      2.31772608
    C      0.50680224      2.30056753      1.63888905
    O     -1.63359992      2.05408652      0.34340559
    C      1.83955966      1.18016316     -0.71966080
    H      0.61527931      2.69932839     -2.53549740
    H     -1.09667652      2.29570906     -2.17030201
    H     -0.71322758      0.26043108     -3.61347054
    H      1.02532091      0.27540007     -3.21183473
    H     -2.43580700     -0.13134410     -2.15941901
    H     -2.26779902     -0.17504790     -0.38771117
    H     -1.89617404     -2.67374180     -0.72498940
    H     -1.18888764     -2.33307877     -2.33019650
    H      2.14370751     -1.68447795     -1.33831065
    H      1.29716162     -3.21523898     -0.99628471
    H      1.52104373     -2.80730270      1.42213609
    H      2.31940522     -1.25570551      1.10832603
    H     -0.56025258     -2.34154208      2.60969134
    H     -1.78665671     -2.40080930      1.32257081
    H     -2.37119572     -0.02612085      1.72781949
    H     -1.46261747     -0.13161206      3.26010078
    H      1.90365412      0.63340053      2.12095939
    H      0.69658720      0.89185675      3.39901422
    H     -0.16212044      2.90923177      2.26099404
    H      1.33095208      2.93536297      1.29543667
    H     -2.05552650      2.12517044      1.21078252
    H      2.18809036      0.52521281      0.07863843
    H      2.28259664      0.82190029     -1.65290914
    H      2.23025167      2.18776148     -0.53269812
$end
   
$rem
mem_static = 200
mem_total  = 7500
exchange = b3lyp
basis = G3Large
max_scf_cycles = 50
scf_convergence = 7
symmetry = false
xc_grid = 000075000302
$end
