$molecule
0    1
    C      0.83652412      0.13171285      1.26751189
    C      1.55711494     -0.39234386      0.00000000
    C      0.83652412      0.13171285     -1.26751189
    C     -0.65916713     -0.14452288     -1.26331996
    C     -1.33162498      0.37734930      0.00000000
    C     -0.65916713     -0.14452288      1.26331996
    C      1.57542232     -1.92420130      0.00000000
    O      2.95105420     -0.02254822      0.00000000
    C      1.61962969      0.09825831     -2.55374209
    C      1.28406775      1.42606930     -1.90904130
    C     -1.16178849     -1.43985655     -1.86137125
    C     -1.40832276     -0.13080221     -2.57398293
    C     -2.81457120      0.65499431      0.00000000
    C     -1.83138981      1.80444044      0.00000000
    C     -1.16178849     -1.43985655      1.86137125
    C     -1.40832276     -0.13080221      2.57398293
    C      1.28406775      1.42606930      1.90904130
    C      1.61962969      0.09825831      2.55374209
    H      0.55696819     -2.31665296      0.00000000
    H      2.09653521     -2.28292791     -0.89391109
    H      2.09653521     -2.28292791      0.89391109
    H      2.99753911      0.94304867      0.00000000
    H      0.50359123      2.02578126      2.36865610
    H      2.10231785      2.00869518      1.48862887
    H      2.64956015     -0.24289370      2.46600483
    H      1.12850549     -0.18310120      3.48396215
    H     -0.43107875     -2.11111510      2.29246990
    H     -2.01481074     -1.91294514      1.37977897
    H     -2.42004843      0.27605963      2.59683984
    H     -0.85080655      0.07964401      3.48350622
    H     -3.38334466      0.46516109      0.90433051
    H     -3.38334466      0.46516109     -0.90433051
    H     -1.72162036      2.37473986     -0.92522223
    H     -1.72162036      2.37473986      0.92522223
    H     -2.01481074     -1.91294514     -1.37977897
    H     -0.43107875     -2.11111510     -2.29246990
    H     -0.85080655      0.07964401     -3.48350622
    H     -2.42004843      0.27605963     -2.59683984
    H      1.12850549     -0.18310120     -3.48396215
    H      2.64956015     -0.24289370     -2.46600483
    H      2.10231785      2.00869518     -1.48862887
    H      0.50359123      2.02578126     -2.36865610
$end
   
$rem
mem_static = 200
mem_total  = 7500
exchange = b3lyp
basis = G3Large
max_scf_cycles = 50
scf_convergence = 7
symmetry = false
xc_grid = 000075000302
$end
