$molecule
0    1
    N     -0.40955060      1.88595393      2.53145912
    C     -0.50779349      1.27171046      1.55112520
    C     -0.63660212      0.52288864      0.28877723
    C     -0.09164318     -0.91197062      0.42976157
    C     -0.42287436     -1.85143585     -0.55725763
    C      0.14295026     -3.12756835     -0.53911145
    C      1.04489773     -3.48181800      0.47099448
    C      1.37240480     -2.55098406      1.45957436
    C      0.81002866     -1.27033815      1.43763057
    H     -1.13093575     -1.58220128     -1.33803141
    H     -0.12330178     -3.84638825     -1.31164854
    H      1.48680525     -4.47596219      0.48620758
    H      2.07387795     -2.81478676      2.24835734
    H      1.08617393     -0.54693387      2.20096977
    C     -2.14425475      0.50170196     -0.06378425
    C     -2.66560355      1.08822633     -1.22180032
    C     -4.03752046      1.01485005     -1.49796727
    C     -4.89991403      0.35989229     -0.61766841
    C     -4.38448465     -0.22414482      0.54645503
    C     -3.01907030     -0.15431605      0.81763818
    H     -2.01724961      1.60619040     -1.92200232
    H     -4.42634893      1.47440982     -2.40453643
    H     -5.96506723      0.30509898     -0.83302991
    H     -5.04719282     -0.73545774      1.24172932
    H     -2.61792222     -0.61429150      1.71833064
    C      0.22386486      1.27265181     -0.80301432
    C      1.70390225      1.29142941     -0.51030352
    C      2.52034869      0.24354356     -0.96002344
    C      3.87239475      0.25539051     -0.63803269
    C      4.45328745      1.27100024      0.11708605
    C      3.63203427      2.31253998      0.56070503
    C      2.26901697      2.32494579      0.25050323
    H      2.10880209     -0.58308962     -1.53238766
    F      4.65571028     -0.76950092     -1.07440500
    H      5.51558633      1.23881144      0.34387838
    H      4.06067237      3.11794227      1.15302168
    H      1.63617010      3.13230349      0.61044098
    H      0.03432387      0.75280431     -1.74825773
    H     -0.15592303      2.29690238     -0.89138342
$end
   
$rem
mem_static = 200
mem_total  = 7500
exchange = b3lyp
basis = G3Large
max_scf_cycles = 50
scf_convergence = 7
symmetry = false
xc_grid = 000075000302
$end
