$molecule
0    1
    C     -0.89452042      0.14116451     -0.79324297
    C     -0.14208523     -0.54981110     -1.64574703
    N      0.51707175     -1.17341587     -2.46036051
    C      1.70094697     -2.01542615     -2.08553723
    C      2.35510791     -1.59548684     -0.79371601
    C      1.70837186     -1.84337635      0.42713312
    C      2.25995390     -1.33031894      1.59571809
    C      3.43607850     -0.58291779      1.60310845
    C      4.07868947     -0.34956970      0.38355949
    C      3.54009275     -0.84626121     -0.80763422
    H      0.78029322     -2.40720643      0.47335299
    F      1.62650544     -1.56453926      2.77421252
    H      3.82802041     -0.20140376      2.54194925
    H      4.99929310      0.22966412      0.36500471
    H      4.03253828     -0.64320036     -1.75654477
    C     -0.47621225      1.51799887     -0.41861190
    C     -2.09347626     -0.50526721     -0.20340399
    C     -2.50480426     -0.17949164      1.10396983
    C     -3.60869138     -0.81014702      1.68079430
    C     -4.32136252     -1.78324023      0.97086215
    C     -3.91950712     -2.11737608     -0.32767107
    C     -2.82233042     -1.48190578     -0.91132462
    H     -1.94870853      0.56698241      1.66500098
    H     -5.18153189     -2.27302379      1.42276674
    H     -4.47105293     -2.86573804     -0.89414240
    H     -2.52763041     -1.72971898     -1.92967251
    C     -1.43867398      2.53045667     -0.24503107
    C     -1.05139807      3.82689808      0.09824305
    C      0.30294369      4.13898120      0.26882730
    C      1.26644939      3.13882042      0.09988503
    C      0.88200236      1.83821416     -0.23305484
    H     -2.49059835      2.29216527     -0.38280872
    H     -1.80889545      4.59828926      0.22589037
    H      0.60246270      5.15028534      0.53694407
    H      2.32144046      3.36649293      0.24273311
    H      1.63116846      1.05666279     -0.33006333
    H     -3.90838774     -0.54530325      2.69327430
    H      1.33427553     -3.04905524     -2.03442240
    H      2.40616105     -1.94987502     -2.92024029
$end
   
$rem
mem_static = 200
mem_total  = 7500
exchange = b3lyp
basis = G3Large
max_scf_cycles = 50
scf_convergence = 7
symmetry = false
xc_grid = 000075000302
$end
