$molecule
0    1
    C      0.94051812      0.63393116     -0.65987658
    C      0.29979977     -0.65801722     -0.03772382
    C      1.24771357     -0.97572649      1.14074391
    C      2.29829514      0.20541102      1.14678658
    C      3.56358176     -0.15630483      0.25918276
    C      1.98996567      0.09359583     -1.64010228
    O      1.61465671      1.24743819      0.44892720
    C      2.66343237      0.69577002      2.54052980
    C     -0.00335984      1.68418469     -1.22585939
    C      3.19422357     -0.32385826     -1.20144504
    N      0.36932647     -0.93257515      2.34681742
    N     -0.80318974     -0.63852217      2.02613383
    N     -0.95659851     -0.44539757      0.67531609
    C     -3.66955035     -0.56272808     -1.85811033
    C     -4.79459285     -0.29319916     -1.07531168
    C     -4.63207097     -0.07657238      0.29894728
    C     -3.36979371     -0.12000823      0.88816737
    C     -2.23878327     -0.39523765      0.09589844
    C     -2.39716996     -0.61637870     -1.28338951
    H      0.19792491     -1.45958589     -0.77510536
    H      1.72709408     -1.95422850      1.10848355
   Cl      4.34817485     -1.67958354      0.92092497
   Cl      4.82750689      1.19338444      0.33251789
   Cl      1.47438576     -0.13476920     -3.29591067
    H      3.20186052     -0.08598339      3.08449928
    H      1.74406024      0.92848513      3.08208979
    H      3.28529129      1.59072615      2.47254837
    H     -0.59160066      1.29305889     -2.05683348
    H      0.57983398      2.54630975     -1.56648661
    H     -0.68149585      1.99705398     -0.42679594
   Cl      4.40878502     -0.97428533     -2.27593460
    H     -3.77435501     -0.73549987     -2.92737917
    H     -5.78290703     -0.25113001     -1.52693886
    H     -5.49811152      0.13543438      0.92281655
    H     -1.53599242     -0.82274251     -1.91110933
    H     -3.24685899      0.04755049      1.95298155
$end
   
$rem
mem_static = 200
mem_total  = 7500
exchange = b3lyp
basis = G3Large
max_scf_cycles = 50
scf_convergence = 7
symmetry = false
xc_grid = 000075000302
$end
