$molecule
0    1
    C      2.06971256      1.44259441      0.03425409
    C      0.89925735      1.53249416     -0.99837645
    C      0.16339726      0.18293451     -0.77468012
    C      1.00325864     -0.44918987      0.40161484
    C      2.32217681     -0.94333030     -0.27469628
    C      3.06381379      0.37837496     -0.54165402
    O      1.42977050      0.72775013      1.10393093
    C      0.33748911     -1.42269472      1.34254317
    C      2.68835869      2.73348165      0.51029810
    C      3.66263791     -0.66605877      0.39215341
    N     -1.14512478      0.67260761     -0.35039159
    N     -1.17078776      2.04324053     -0.27146802
    N     -0.08945940      2.57453332     -0.60903732
    H      1.24356242      1.73271984     -2.01553530
    H      0.08363298     -0.46205898     -1.65163985
   Cl      2.12111040     -2.28799947     -1.41580459
   Cl      3.87265064      0.83771953     -2.04974178
    H      0.08686723     -2.34783396      0.81542513
    H     -0.58159542     -0.98198499      1.74024592
    H      1.02104733     -1.64963636      2.16717896
    H      3.17705150      3.23861965     -0.32990291
    H      3.43006305      2.52235484      1.28741954
    H      1.90404202      3.38546907      0.90635860
   Cl      3.87016497     -0.42630049      2.17037170
   Cl      5.06654793     -1.58107521     -0.22729364
    C     -2.32152848     -1.43959125     -0.62798907
    C     -3.48942752     -2.19841335     -0.52021661
    C     -4.66887654     -1.62751934     -0.03612157
    C     -4.66690394     -0.27846587      0.34093676
    C     -3.51081729      0.49365863      0.24308412
    C     -2.32358974     -0.08593051     -0.24588867
    H     -1.41355276     -1.90382717     -0.99982659
    H     -3.46948716     -3.24452119     -0.81933720
    H     -5.57531495     -2.22230752      0.04799824
    H     -5.57691369      0.18174607      0.72092576
    H     -3.51323366      1.53844039      0.53486231
$end
   
$rem
mem_static = 200
mem_total  = 7500
exchange = b3lyp
basis = G3Large
max_scf_cycles = 50
scf_convergence = 7
symmetry = false
xc_grid = 000075000302
$end
