$molecule
0    1
    C     -2.20609667     -0.15006075      0.85137693
    C     -1.91742159     -0.10259482     -0.74313487
    C     -3.22530146      0.56812467     -1.31181855
    C     -3.74807692      1.52486657     -0.19603530
    C     -3.52659960      0.69799119      1.11687272
    C     -0.69053974      0.81509578     -1.02850316
    C      0.64690599      0.19335792     -0.61889143
    C      1.59837611      1.08581752      0.10348488
    C      1.87462778      2.36824768     -0.40049274
    C      2.75697633      3.21695236      0.27099861
    C      3.35137078      2.80422352      1.46860712
    C      3.06365944      1.53754009      1.98826173
    C      2.19637333      0.68049902      1.30777422
    O     -1.77523576     -1.35118257     -1.33746782
    F     -3.02254087      1.23595614     -2.48244550
    F     -4.18312854     -0.37378577     -1.53106581
    F     -2.97277644      2.65134320     -0.15290231
    F     -5.03261372      1.90087965     -0.37123824
    F     -3.40710787      1.49977802      2.19955649
    F     -4.60859967     -0.10666760      1.30304160
    C     -2.28961647     -1.59646269      1.44589309
    F     -3.21310558     -2.35725898      0.84649310
    F     -1.17403342      0.46525047      1.54924651
    N      0.84129532     -1.02691997     -0.95833909
    C      2.09578212     -1.75261270     -0.74872323
    C      1.87673662     -2.86272976      0.28934507
    C      2.52127563     -2.34331461     -2.10159251
    F     -1.08547168     -2.20457785      1.33262437
    F     -2.58368092     -1.52751961      2.76956111
    H      2.89025645     -1.08150174     -0.39175899
    H      2.67925396     -1.54947628     -2.84190695
    H      3.45733250     -2.90413215     -1.98312641
    H      1.74676375     -3.02357805     -2.47833599
    H      1.58878030     -2.44931559      1.26229343
    H      1.08075521     -3.54078391     -0.04198100
    H      2.80284730     -3.43873911      0.40961806
    H      1.40585786      2.69646975     -1.32629100
    H      2.97380133      4.20273441     -0.13526794
    H      4.02958293      3.47005616      1.99828695
    H      3.51096565      1.21818112      2.92735219
    H      1.95728518     -0.29605552      1.71898976
    H     -0.81275995      1.78568696     -0.54965951
    H     -0.68102924      0.96673745     -2.11366432
    H     -0.79112573     -1.54651956     -1.31503523
$end
   
$rem
mem_static = 200
mem_total  = 7500
exchange = b3lyp
basis = G3Large
max_scf_cycles = 50
scf_convergence = 7
symmetry = false
xc_grid = 000075000302
$end
