$molecule
1    1
    N     -0.07297865      1.94923257     -0.47590520
    C      0.86907438      1.08323696      0.44540200
    C      0.12082622     -0.29225075      0.42873475
    C     -1.31239747      0.07471007      0.25569352
    C     -1.42544270      1.34858216     -0.29931229
    C      2.27076129      0.75602030     -0.13427672
    C      2.22631019     -0.79556452     -0.23640902
    C      2.13294229     -1.37336092      1.20825159
    C      0.64125837     -1.11020149      1.62585173
    C      0.80025052     -1.05610050     -0.79968385
    C     -2.62731560      1.94163922     -0.64987003
    C     -3.79211872      1.20006614     -0.41738963
    C     -3.70418980     -0.08461547      0.14110414
    C     -2.47146613     -0.66299689      0.48222351
    C      0.90396444      1.83076511      1.77520360
    C      0.38696321     -2.53846715     -0.88473777
    C      0.53005368     -0.46898560     -2.20265347
   Cl     -5.17227484     -0.98894267      0.42538788
    H     -2.42989475     -1.65696511      0.91719843
    H     -4.76349964      1.61879532     -0.66194594
    H     -2.68597400      2.93874438     -1.08062485
    H      0.22544376      1.88387630     -1.45489124
    H     -0.04557780      2.93545564     -0.19934558
    H      0.54322855     -0.57555724      2.57322584
    H      0.07582032     -2.03954130      1.72605919
    H      2.84184626     -0.87922468      1.88166321
    H      2.36135685     -2.44232445      1.21669602
    H      3.04847487     -1.21058003     -0.82685190
    H      3.05728102      1.10439838      0.54245211
    H      2.44961106      1.22723597     -1.10732682
    H      1.33583773      2.83098051      1.63163265
    H     -0.09662357      1.92341239      2.21538767
    H      1.54983173      1.29988629      2.47803802
    H     -0.54629610     -0.32609621     -2.36445897
    H      1.05642949      0.46997559     -2.41641148
    H      0.88063602     -1.17126793     -2.96653517
    H     -0.68489182     -2.61526460     -1.10986997
    H      0.93293899     -3.01903831     -1.70482988
    H      0.58980033     -3.10966748      0.02312393
$end
   
$rem
mem_static = 200
mem_total  = 7500
exchange = b3lyp
basis = G3Large
max_scf_cycles = 50
scf_convergence = 7
symmetry = false
xc_grid = 000075000302
$end
