$molecule
0    1
    C     -0.38358924      0.18634199     -0.19210009
    C     -1.14139521     -0.33126090      1.06306113
    C     -0.28350818     -0.21064436      2.30403506
    C      1.00439462      0.14691064      2.32206395
    C      1.82346997      0.36756662      1.08248517
    C      1.12492074     -0.19009271     -0.16702811
    C      1.87534671      0.27485685     -1.44235424
    C      3.39568702      0.44704607     -1.20448585
    C      3.89905991     -0.54906460     -0.14931597
    C      3.23191425     -0.27883754      1.22322498
    C     -2.50657431      0.39670417      1.29779014
    C     -3.33419759     -0.31122453      2.38764214
    C     -3.37120520      0.51137403      0.03010037
    C     -0.96052786     -0.40489230     -1.47090469
    O     -1.20640755     -1.58108823     -1.64406164
    O     -1.10936659      0.54167359     -2.44139176
    C     -1.58762368      0.05264121     -3.71827150
    H     -0.45736117      1.28103008     -0.23581999
    H     -1.37171280     -1.39525080      0.89124340
    H     -0.77841808     -0.40578977      3.25341679
    H      1.52081803      0.24486813      3.27899000
    H      1.44557236      1.22372686     -1.78965587
    H      1.70480065     -0.45899770     -2.24164405
    H      3.93923817      0.32226870     -2.14986898
    H      3.60109038      1.46879226     -0.85379106
    H      4.99165081     -0.50031412     -0.05510434
    H      3.65439977     -1.56752546     -0.48307992
    H      3.13578780     -1.22239058      1.77803504
    H      3.86182673      0.38671286      1.82962567
    H     -2.27160114      1.41612825      1.64269760
    H     -2.83038807     -0.33671357      3.36003881
    H     -3.54542416     -1.34642875      2.08314278
    H     -4.29440206      0.20325724      2.52441101
    H     -3.55974855     -0.48146862     -0.40015185
    H     -2.90365182      1.13927267     -0.73540543
    H     -4.34027598      0.96090118      0.28414760
    H     -1.62955542      0.93102596     -4.36715212
    H     -2.58120430     -0.39694600     -3.60402609
    H     -0.89887284     -0.69927392     -4.12128682
    H      1.17137520     -1.28691932     -0.10361778
    H      1.96565866      1.45202440      0.93436652
$end
   
$rem
mem_static = 200
mem_total  = 7500
exchange = b3lyp
basis = G3Large
max_scf_cycles = 50
scf_convergence = 7
symmetry = false
xc_grid = 000075000302
$end
