$molecule
0    1
    C     -6.80237488     -0.71541403      0.64963340
    C     -6.24094261      0.41983888     -0.23228387
    C     -6.57517989      0.15847363     -1.71719050
    C     -4.74949828      0.61200582     -0.02397969
    C     -3.82358900     -0.33625814     -0.25120065
    C     -2.37950467     -0.20776634     -0.03980897
    C     -1.78421388      0.61282223      0.84456113
    C     -0.30242887      0.77896382      1.04958789
    C      0.60377010     -0.08740777      0.16759324
    C      2.09126312      0.14934808      0.45267979
    C      4.45430687     -0.53082080     -0.11704234
    C      5.36460228     -0.04665464     -0.97633788
    C      6.79850168      0.17848023     -0.68720599
    O      7.58637094      0.62188807     -1.50408960
    O      7.15186396     -0.15969728      0.58972186
    C      8.54591745      0.04272947      0.91883384
    C      3.00421095     -0.72129559     -0.43806258
    H     -7.88878882     -0.80852337      0.51337344
    H     -6.33830281     -1.67230193      0.37613344
    H     -6.59625113     -0.53008633      1.71142693
    H     -6.74069975      1.35299362      0.06280056
    H     -6.10400827     -0.77542537     -2.05144100
    H     -6.20663119      0.97191156     -2.35484448
    H     -7.66109910      0.06587503     -1.85718147
    H     -4.41788687      1.59409290      0.31841653
    H     -4.15686822     -1.29736907     -0.65140619
    H     -1.75331645     -0.86098532     -0.64992997
    H     -2.41755473      1.22178227      1.49408295
    H     -0.04283436      1.84068764      0.89421014
    H     -0.06651319      0.58282518      2.10968587
    H      0.39569070      0.12365711     -0.89147763
    H      0.36667296     -1.14942327      0.32873183
    H      2.33666052      1.20885309      0.29100109
    H      2.30229487     -0.06641288      1.51085288
    H      4.76890137     -0.78439924      0.89642709
    H      5.08117188      0.22072425     -1.99347939
    H      8.64527657     -0.27539394      1.95988735
    H      9.18578531     -0.56069292      0.26386431
    H      8.81680755      1.09936541      0.80627575
    H      2.81524216     -0.49342969     -1.49619996
    H      2.73317576     -1.77756039     -0.27661916
$end
   
$rem
mem_static = 200
mem_total  = 7500
exchange = b3lyp
basis = G3Large
max_scf_cycles = 50
scf_convergence = 7
symmetry = false
xc_grid = 000075000302
$end
