$molecule
0    1
    C      1.23270159     -0.33520260      1.25504434
    C     -0.15700316      0.15895988      1.70537674
    C     -1.21095065     -0.23860041      0.67530055
    C     -0.79513259      0.25480376     -0.71013422
    C      0.61954470     -0.25195999     -1.05058443
    O      1.53786906      0.19551788     -0.03376462
    O     -0.54230121     -0.41366028      2.95725893
    O     -2.49766385      0.32431506      0.96261451
    O     -1.70319002     -0.20768513     -1.71975428
    C      1.13706243      0.28740219     -2.39260847
    O      0.51609088     -0.33930857     -3.50959539
    H      0.18468610     -0.25513864      3.57764603
    H     -2.75023492      0.01423798      1.84388855
    H     -0.44205152     -0.26433505     -3.37334538
    H     -2.59298110      0.04696145     -1.43440462
    O      2.23638713      0.05746431      2.15642582
    H      2.31867858      1.02225663      2.08687507
    H      1.25153553     -1.43691247      1.23934464
    H     -0.11741724      1.26133890      1.77030010
    H     -1.27477648     -1.33965834      0.65019150
    H     -0.76944637      1.35735443     -0.69720537
    H      0.60830760     -1.35439856     -1.09032707
    H      1.00116379      1.38398232     -2.40762145
    H      2.20912172      0.07226527     -2.46092146
$end
   
$rem
mem_static = 200
mem_total  = 7500
exchange = b3lyp
basis = G3Large
max_scf_cycles = 50
scf_convergence = 7
symmetry = false
xc_grid = 000075000302
$end
