$molecule
0    1
    C      3.07197371      0.26648622     -1.06601447
    O      4.01648844     -0.48022514     -1.11455018
    C      2.14982271      0.46946828      0.13507817
    O      2.60472200     -0.27622409      1.24832416
    C      0.70726944      0.05506504     -0.27077202
    H      0.47461559      0.49324262     -1.25190551
    C     -0.34361014      0.58161717      0.73202772
    O     -0.00513329      0.23196066      2.08978138
    C     -1.77788189      0.09754202      0.42127912
    H     -2.46684191      0.62555739      1.09161383
    C     -2.22103832      0.34670612     -1.02424697
    O     -3.60404568      0.05570344     -1.20379344
    H      2.76538128      0.89161826     -1.94448976
    H      2.13377506      1.55854656      0.33751212
    H      1.92521883     -0.13316093      1.93588884
    O      0.63591039     -1.37445033     -0.42432973
    H     -0.32446366      1.67933683      0.67863845
    H     -0.48283483     -0.59491180      2.27730096
    O     -1.92097788     -1.29844409      0.76159040
    H     -1.59810781     -0.26068898     -1.70404225
    H     -2.08676312      1.40562780     -1.28271711
    H     -3.74226747     -0.83611443     -0.84951852
    H      1.30868453     -1.74959099      0.17079608
    H     -1.21989597     -1.75466762      0.25654874
$end
   
$rem
mem_static = 200
mem_total  = 7500
exchange = b3lyp
basis = G3Large
max_scf_cycles = 50
scf_convergence = 7
symmetry = false
xc_grid = 000075000302
$end
