$molecule
0    1
    C     -1.34603470      1.13134452     -0.39738176
    C     -2.44398535      0.94493378      0.35204740
    C     -3.27208839     -0.31590856      0.32293131
    C     -2.53657938     -1.56202311     -0.27624916
    C     -1.05558361     -1.30094874     -0.58854314
    C     -0.92997533      0.03670081     -1.36116278
    C      2.94933832      0.97355495      0.22821023
    C      1.62375176      0.63297034      0.54096610
    C      1.24363289     -0.72129954      0.41219560
    C      2.17165408     -1.67819730     -0.02109237
    C      3.48813245     -1.31655661     -0.31891559
    C      3.87702548      0.01924770     -0.19738194
    C     -0.35090172      2.21843234     -0.08193814
    C      0.67062458      1.72566949      0.99245620
    C     -0.17202494     -1.21070658      0.66797780
    O     -0.54658519     -1.53599229      1.77934695
    H     -2.70548144      1.69190489      1.10431924
    H     -3.57664527     -0.53464025      1.35500968
    H     -4.20706684     -0.14920889     -0.23476706
    H     -3.02035746     -1.86042587     -1.21463658
    H     -2.61960860     -2.40054917      0.42351567
    H     -0.64836078     -2.12318818     -1.19936865
    H      0.09166217      0.19610962     -1.71903272
    H     -1.58846484      0.00078250     -2.24087513
    H      3.25630604      2.01395649      0.33079257
    H      1.86141449     -2.71802711     -0.11591217
    H      4.20094085     -2.07294463     -0.64129665
    H      4.89797894      0.31801024     -0.42717563
    H      0.19281173      2.53767331     -0.98262050
    H     -0.86716168      3.09471930      0.33274965
    H      0.09254119      1.37756926      1.85791734
    H      1.26909057      2.58703730      1.31791424
$end
   
$rem
mem_static = 200
mem_total  = 7500
exchange = b3lyp
basis = G3Large
max_scf_cycles = 50
scf_convergence = 7
symmetry = false
xc_grid = 000075000302
$end
