$molecule
0    1
    C     -1.88389708      3.24635182      0.02928729
    C     -0.51725322      3.06358054     -0.01729496
    C      0.18353650      1.82315800      0.11904322
    C      1.52654162      1.75182574     -0.10233334
    N      2.39106994      0.65157456      0.01842926
    C     -2.86732712      2.22118852      0.03897526
    C     -4.22494249      2.46427712      0.07836340
    C     -5.33669142      1.57093414     -0.00285201
    C     -5.40919473      0.18840498     -0.06316318
    C     -4.34048769     -0.72446202      0.06949192
    C     -4.38129638     -2.08664903     -0.13593883
    C     -3.22753610     -2.93077551     -0.08779483
    C     -1.93547201     -2.45536917     -0.10832376
    C     -0.74259373     -3.19125717      0.09776124
    C      0.51586822     -2.62426094      0.15234465
    C      0.81901329     -1.25515800     -0.12900045
    C      2.01358754     -0.69227016      0.19414046
    C      3.78426391      0.97926487     -0.02786960
    O      4.21201337      2.11292243     -0.07146851
    O      4.54525160     -0.13509854     -0.03333098
    C      5.99019833      0.09243415     -0.04295507
    C      6.65450088     -1.27174314     -0.02014435
    H     -2.24961581      4.27496521      0.00819687
    H      0.09906801      3.95207349     -0.16640641
    H     -0.38036064      0.95661360      0.44579003
    H      2.05567768      2.65411179     -0.38998673
    H     -2.50014564      1.20527425     -0.06522126
    H     -4.50687716      3.51886785      0.14029196
    H     -6.29863258      2.08134642     -0.06837240
    H     -6.39919374     -0.23687311     -0.24354776
    H     -3.39337870     -0.31382630      0.39828108
    H     -5.34367424     -2.55344586     -0.35607385
    H     -3.38802651     -4.00930559     -0.03089115
    H     -1.81445655     -1.38383951     -0.25819940
    H     -0.83191074     -4.25920492      0.30284609
    H      1.34586562     -3.25657836      0.47241123
    H      0.06787199     -0.65963864     -0.63399942
    H      2.78593208     -1.30304678      0.64666736
    H      6.25120205      0.69878305      0.83282385
    H      6.23966270      0.66332179     -0.94542061
    H      6.38676306     -1.82417817      0.88861572
    H      7.74394015     -1.14023392     -0.03814315
    H      6.36113575     -1.86405949     -0.89502889
$end
   
$rem
mem_static = 200
mem_total  = 7500
exchange = b3lyp
basis = G3Large
max_scf_cycles = 50
scf_convergence = 7
symmetry = false
xc_grid = 000075000302
$end
