$molecule
0    1
    C     -3.45201511      1.18600354      1.17449441
    C     -2.12702400      1.30970602      1.43537698
    C     -1.01775599      0.73754000      0.64546330
    C     -1.09311377      0.99884234     -0.92234663
    C     -1.50141994     -0.18017300     -1.71111410
    C     -2.75463020     -0.69156095     -1.69367317
    C     -3.93610558     -0.25754542     -0.97816894
    C     -4.20175568      0.49516984      0.14001503
    C      0.36643798      1.43444828      0.69299089
    C      0.39376226      1.49507513     -0.88593577
    C      1.37526405      0.76448810      1.57443316
    C      2.70983238      0.90728050      1.60831957
    C      3.54868667      1.68547609      0.70463724
    C      3.59737811      1.67101407     -0.64077233
    C      2.88778790      0.83970736     -1.64321790
    C      1.36030121      0.73556346     -1.75896005
    N      2.17274715     -0.39341562     -1.40050455
    C      2.20792006     -1.33323001     -0.40018676
    O      3.21788708     -1.77700940      0.10734927
    O      0.93483104     -1.77603943     -0.15588645
    C      0.81837843     -2.82320534      0.84378647
    C     -0.62872208     -3.28760158      0.85063817
    H     -4.10661355      1.71184026      1.87171256
    H     -1.84577941      1.96283800      2.26465746
    H     -0.90572796     -0.33810523      0.80148389
    H     -1.78429863      1.82934403     -1.10031849
    H     -0.73799358     -0.72673189     -2.26200462
    H     -2.93024441     -1.55757263     -2.33466686
    H     -4.84582703     -0.66438305     -1.42581881
    H     -5.27471883      0.58675192      0.32082912
    H      0.24165947      2.47000212      1.04656291
    H      0.46429544      2.53552845     -1.22870207
    H      0.92786638      0.13763350      2.34904505
    H      3.24098802      0.42362236      2.43006972
    H      4.28756269      2.32092858      1.19940906
    H      4.32813687      2.33226266     -1.10778770
    H      3.41613229      0.83079525     -2.60023139
    H      0.99104845      0.68672166     -2.78883557
    H      1.12126446     -2.41112508      1.81599447
    H      1.50804392     -3.63776415      0.59211147
    H     -1.31106816     -2.46695838      1.10142554
    H     -0.75022216     -4.08142668      1.59922168
    H     -0.91317624     -3.68473570     -0.13089529
$end
   
$rem
mem_static = 200
mem_total  = 7500
exchange = b3lyp
basis = G3Large
max_scf_cycles = 50
scf_convergence = 7
symmetry = false
xc_grid = 000075000302
$end
