$molecule
0    1
    C      0.00000000     -1.26094755     -1.28831475
    C      0.00000000      0.00000000     -2.17917851
    C      0.00000000      1.26094755     -1.28831475
    C     -1.25822394      1.25573460     -0.39543174
    C     -1.27919715      0.00000000      0.50787264
    C     -1.25822394     -1.25573460     -0.39543174
    C      1.25822394     -1.25573460     -0.39543174
    C      1.25822394      1.25573460     -0.39543174
    C      1.27919715      0.00000000      0.50787264
    C      0.00000000      0.00000000      1.37585916
    C     -2.52521575      0.00000000      1.39596835
    H      0.00000000     -2.16055374     -1.91937588
    H      0.88836589      0.00000000     -2.82759468
    H     -0.88836589      0.00000000     -2.82759468
    H      0.00000000      2.16055374     -1.91937588
    H     -1.27662066      2.15670954      0.23634436
    H     -2.16441227      1.26841188     -1.01961184
    H     -1.27662066     -2.15670954      0.23634436
    H     -2.16441227     -1.26841188     -1.01961184
    H      1.27662066     -2.15670954      0.23634436
    H      2.16441227     -1.26841188     -1.01961184
    H      1.27662066      2.15670954      0.23634436
    H      2.16441227      1.26841188     -1.01961184
    C      2.52521575      0.00000000      1.39596835
    H      0.00000000      0.88778193      2.02706335
    H      0.00000000     -0.88778193      2.02706335
    H     -3.43828315      0.00000000      0.78368309
    H     -2.54222960     -0.89084394      2.03987800
    H     -2.54222960      0.89084394      2.03987800
    H      3.43828315      0.00000000      0.78368309
    H      2.54222960      0.89084394      2.03987800
    H      2.54222960     -0.89084394      2.03987800
$end
   
$rem
mem_static = 200
mem_total  = 7500
exchange = b3lyp
basis = G3Large
max_scf_cycles = 50
scf_convergence = 7
symmetry = false
xc_grid = 000075000302
$end
