$molecule
0    1
    C     -1.83530106     -0.11816096      0.00000000
    C     -0.60658133      0.39647950      0.00000000
    C      0.60658133     -0.39647950      0.00000000
    C      1.83530106      0.11816096      0.00000000
    H     -1.99610173     -1.19153740      0.00000000
    H     -2.71599500      0.51216750      0.00000000
    H     -0.47787289      1.47682183      0.00000000
    H      0.47787289     -1.47682183      0.00000000
    H      1.99610173      1.19153740      0.00000000
    H      2.71599500     -0.51216750      0.00000000
$end
   
$rem
mem_static = 200
mem_total  = 7500
exchange = b3lyp
basis = G3Large
max_scf_cycles = 50
scf_convergence = 7
symmetry = false
xc_grid = 000075000302
$end
