$molecule
0    1
    C      1.08597315      0.00000000      0.56850970
    C      0.71368394      0.00000000     -0.73224904
    C     -0.71368394      0.00000000     -0.73224904
    C     -1.08597315      0.00000000      0.56850970
    O      0.00000000      0.00000000      1.37258769
    H      2.04208959      0.00000000      1.06480060
    H      1.37030104      0.00000000     -1.58735512
    H     -1.37030104      0.00000000     -1.58735512
    H     -2.04208959      0.00000000      1.06480060
$end
   
$rem
mem_static = 200
mem_total  = 7500
exchange = b3lyp
basis = G3Large
max_scf_cycles = 50
scf_convergence = 7
symmetry = false
xc_grid = 000075000302
$end
