$molecule
0    1
    C      1.24499907      0.00000000     -0.66342576
    C      0.00000000      0.00000000     -1.48950101
    C     -1.24499907      0.00000000     -0.66342576
    C     -1.24499907      0.00000000      0.66342576
    C      0.00000000      0.00000000      1.48950101
    C      1.24499907      0.00000000      0.66342576
    H      2.19097461      0.00000000     -1.19755616
    H      0.00000000      0.86814185     -2.16415273
    H      0.00000000     -0.86814185     -2.16415273
    H     -2.19097461      0.00000000     -1.19755616
    H     -2.19097461      0.00000000      1.19755616
    H      0.00000000     -0.86814185      2.16415273
    H      0.00000000      0.86814185      2.16415273
    H      2.19097461      0.00000000      1.19755616
$end
   
$rem
mem_static = 200
mem_total  = 7500
exchange = b3lyp
basis = G3Large
max_scf_cycles = 50
scf_convergence = 7
symmetry = false
xc_grid = 000075000302
$end
