$molecule
0    1
    C      0.00000000      1.28071743     -0.19313243
    C     -1.24342193      0.77057473      0.55997085
    C     -1.24342193     -0.77057473      0.55997085
    C      0.00000000     -1.28071743     -0.19313243
    C      0.00000000      0.66548037     -1.56095133
    C      0.00000000     -0.66548037     -1.56095133
    C      1.24342193      0.77057473      0.55997085
    C      1.24342193     -0.77057473      0.55997085
    H      0.00000000      2.37180776     -0.23301402
    H     -1.22879403      1.16187963      1.58178189
    H     -2.14570132      1.15929741      0.08306597
    H     -2.14570132     -1.15929741      0.08306597
    H     -1.22879403     -1.16187963      1.58178189
    H      0.00000000     -2.37180776     -0.23301402
    H      0.00000000      1.26837363     -2.46253965
    H      0.00000000     -1.26837363     -2.46253965
    H      1.22879403      1.16187963      1.58178189
    H      2.14570132      1.15929741      0.08306597
    H      1.22879403     -1.16187963      1.58178189
    H      2.14570132     -1.15929741      0.08306597
$end
   
$rem
mem_static = 200
mem_total  = 7500
exchange = b3lyp
basis = G3Large
max_scf_cycles = 50
scf_convergence = 7
symmetry = false
xc_grid = 000075000302
$end
