$molecule
0    1
    C      1.07493533      0.14698844     -1.06208485
    C     -0.28473476      0.87639590     -0.76118169
    C     -0.28473476      0.87639590      0.76118169
    C      1.07493533      0.14698844      1.06208485
    C      0.90426765     -1.30155334     -0.66453595
    C      0.90426765     -1.30155334      0.66453595
    O      1.86195208      0.66513276      0.00000000
    C     -1.52705287      0.11826259     -1.14136178
    C     -1.52705287      0.11826259      1.14136178
    O     -2.18546302     -0.28789095      0.00000000
    O     -1.94474050     -0.13993343      2.22171051
    O     -1.94474050     -0.13993343     -2.22171051
    H      1.51270432      0.36955280     -2.03079925
    H     -0.29167252      1.86403407     -1.22051033
    H     -0.29167252      1.86403407      1.22051033
    H      1.51270432      0.36955280      2.03079925
    H      0.71804882     -2.12236794     -1.34224077
    H      0.71804882     -2.12236794      1.34224077
$end
   
$rem
mem_static = 200
mem_total  = 7500
exchange = b3lyp
basis = G3Large
max_scf_cycles = 50
scf_convergence = 7
symmetry = false
xc_grid = 000075000302
$end
