$molecule
0    1
    C      0.67067414      0.52680484     -1.06194697
    C     -0.46887969     -0.50169401     -0.76363841
    C     -0.46887969     -0.50169401      0.76363841
    C      0.67067414      0.52680484      1.06194697
    C      1.95962449     -0.15770731     -0.66412669
    C      1.95962449     -0.15770731      0.66412669
    O      0.47344025      1.44895766      0.00000000
    C     -1.81983141      0.05669758     -1.13653208
    C     -1.81983141      0.05669758      1.13653208
    O     -2.53097652      0.36280372      0.00000000
    O     -2.26808607      0.23848324      2.21959638
    O     -2.26808607      0.23848324     -2.21959638
    H      0.61160963      1.01378412     -2.03176276
    H     -0.31659378     -1.45989804     -1.25737812
    H     -0.31659378     -1.45989804      1.25737812
    H      0.61160963      1.01378412      2.03176276
    H      2.66025082     -0.62235111     -1.34323902
    H      2.66025082     -0.62235111      1.34323902
$end
   
$rem
mem_static = 200
mem_total  = 7500
exchange = b3lyp
basis = G3Large
max_scf_cycles = 50
scf_convergence = 7
symmetry = false
xc_grid = 000075000302
$end
