$molecule
0    1
    C      0.82236841      0.04567395     -1.12376955
    C     -0.51496593      0.77309405     -0.76433143
    C     -0.51496593      0.77309405      0.76433143
    C      0.82236841      0.04567395      1.12376955
    C      0.67473529     -1.38704791     -0.66644312
    C      0.67473529     -1.38704791      0.66644312
    C      1.70910466      0.60282536      0.00000000
    C     -1.76441453      0.02252699     -1.14159373
    C     -1.76441453      0.02252699      1.14159373
    O     -2.43212129     -0.36587288      0.00000000
    O     -2.18347093     -0.23925249      2.22081185
    O     -2.18347093     -0.23925249     -2.22081185
    H      1.14107898      0.20000631     -2.15197896
    H     -0.54770786      1.76567946     -1.21621646
    H     -0.54770786      1.76567946      1.21621646
    H      1.14107898      0.20000631      2.15197896
    H      0.49020403     -2.22773162     -1.32217133
    H      0.49020403     -2.22773162      1.32217133
    H      1.78008623      1.69410504      0.00000000
    H      2.70727548      0.16304499      0.00000000
$end
   
$rem
mem_static = 200
mem_total  = 7500
exchange = b3lyp
basis = G3Large
max_scf_cycles = 50
scf_convergence = 7
symmetry = false
xc_grid = 000075000302
$end
