$molecule
0    1
    C      0.63866201      0.31345450     -1.12198732
    C     -0.51421343     -0.67934693     -0.76522922
    C     -0.51421343     -0.67934693      0.76522922
    C      0.63866201      0.31345450      1.12198732
    C      1.90251780     -0.38058342     -0.66612540
    C      1.90251780     -0.38058342      0.66612540
    C      0.47779273      1.34759727      0.00000000
    C     -1.87483459     -0.14859893     -1.13949123
    C     -1.87483459     -0.14859893      1.13949123
    O     -2.59612925      0.14054600      0.00000000
    O     -2.33045312      0.03481987      2.21975233
    O     -2.33045312      0.03481987     -2.21975233
    H      0.60732423      0.66523929     -2.15092170
    H     -0.37408923     -1.65023535     -1.23972801
    H     -0.37408923     -1.65023535      1.23972801
    H      0.60732423      0.66523929      2.15092170
    H      2.60761648     -0.87218608     -1.32368195
    H      2.60761648     -0.87218608      1.32368195
    H     -0.48727050      1.86226830      0.00000000
    H      1.28054675      2.08446257      0.00000000
$end
   
$rem
mem_static = 200
mem_total  = 7500
exchange = b3lyp
basis = G3Large
max_scf_cycles = 50
scf_convergence = 7
symmetry = false
xc_grid = 000075000302
$end
