#p b3lyp 6-311+g(3df,2p) scf=tight nosymm

01_Water-Water_1_y_+30

0    1
    O      0.95892568     -0.10573749      0.00014599
    H      1.28594547      0.79483368      0.00000000
    H      0.00000000      0.00000000      0.00000000
 
 
 
