#p b3lyp 6-311+g(3df,2p) scf=tight nosymm

02_Water-MeOH_2_y_+30

0    1
    O     -2.90611406     -0.15862049     -0.13249950
    H     -3.30283489      0.70335373     -0.00000000
    H     -1.96234680     -0.00000000     -0.00000000
 
 
 
