#p b3lyp 6-311+g(3df,2p) scf=tight nosymm

02_Water-MeOH_1_z_-30

0    1
    O      0.94376725     -0.15862049      0.13249950
    H      1.34048808      0.70335373     -0.00000000
    H      0.00000000      0.00000000      0.00000000
 
 
 
