#p b3lyp 6-311+g(3df,2p) scf=tight nosymm

03_Water-MeNH2_2_y_+30

0    1
    O     -2.97821428     -0.09986234     -0.00874172
    H     -3.30143673      0.80186438     -0.00000000
    H     -2.01196375     -0.00000000     -0.00000000
 
 
 
