#p b3lyp 6-311+g(3df,2p) scf=tight nosymm

03_Water-MeNH2_1_z_-30

0    1
    O      0.96625054     -0.09986234      0.00874172
    H      1.28947298      0.80186438      0.00000000
    H      0.00000000     -0.00000000      0.00000000
 
 
 
