#p b3lyp 6-311+g(3df,2p) scf=tight nosymm

04_Water-Peptide_1_z_-30

0    1
    O      0.94478958     -0.21968068      0.00848481
    H      1.37873790      0.63437239     -0.00000000
    H      0.00000000      0.00000000      0.00000000
 
 
 
