#p b3lyp 6-311+g(3df,2p) scf=tight nosymm

04_Water-Peptide_2_z_+30

0    1
    O     -2.84959633     -0.21968068     -0.00848481
    H     -3.28354465      0.63437239      0.00000000
    H     -1.90480675     -0.00000000      0.00000000
 
 
 
