#p b3lyp 6-311+g(3df,2p) scf=tight nosymm

05_MeOH-MeOH_1_y_+30

0    1
    O      0.95290245     -0.00189177      0.16057898
    H      0.00000000      0.00000000      0.00000000
    C      1.40482947      1.32683832      0.00000000
    H      2.47289351      1.33438702      0.20091548
    H      1.24961064      1.70273645     -1.01412192
    H      0.92609732      2.01901244      0.69741685
 
 
 
