#p b3lyp 6-311+g(3df,2p) scf=tight nosymm

05_MeOH-MeOH_2_z_-30

0    1
    O     -2.88964497     -0.00189177     -0.16057898
    H     -1.93674253     -0.00000000     -0.00000000
    C     -3.34157200      1.32683832     -0.00000000
    H     -4.40963604      1.33438702     -0.20091548
    H     -3.18635317      1.70273645      1.01412192
    H     -2.86283985      2.01901244     -0.69741685
 
 
 
