#p b3lyp 6-311+g(3df,2p) scf=tight nosymm

06_MeOH-MeNH2_2_y_-30

0    1
    O     -2.93895711      0.08007877     -0.00285958
    H     -1.96936137      0.00000000      0.00000000
    C     -3.23227847      1.45833936      0.00000000
    H     -4.31409889      1.56812610     -0.00184960
    H     -2.84781661      1.97023329      0.88746125
    H     -2.84431892      1.97461483     -0.88338715
 
 
 
