#p b3lyp 6-311+g(3df,2p) scf=tight nosymm

10_MeNH2-MeNH2_1_z_-30

0    1
    N      0.89997541      0.47032238     -0.00000000
    H     -0.00000000     -0.00000000     -0.00000000
    H      1.55153168     -0.16547113      0.44087101
    C      1.31728937      0.70373531     -1.38084680
    H      2.28575228      1.20056194     -1.39094125
    H      1.39340910     -0.19306070     -2.00386482
    H      0.60815153      1.37743047     -1.85843182
 
 
 
