#p b3lyp 6-311+g(3df,2p) scf=tight nosymm

13_Peptide-MeOH_1_z_-30

0    1
    C      0.73836405      2.37693595      0.57349118
    H     -0.28104831      2.05431273      0.77034752
    H      0.72746607      3.21027701     -0.12569857
    H      1.19228422      2.73057352      1.49591968
    C      1.60548706      1.27917410      0.00000000
    O      2.79654211      1.44602380     -0.24171972
    N      0.97305151      0.10567720     -0.24027936
    H      0.00000000     -0.00000000      0.00000000
    C      1.70869441     -1.01460976     -0.78255475
    H      2.24124361     -0.71520402     -1.68250986
    H      2.44491019     -1.38962173     -0.07256534
    H      1.00874371     -1.80916656     -1.02435895
 
 
 
