#p b3lyp 6-311+g(3df,2p) scf=tight nosymm

15_Peptide-Peptide_2_z_-30

0    1
    C     -2.79097833      2.33052923     -0.50294292
    H     -3.25827373      2.73639781     -1.39672934
    H     -1.76859856      2.03634442     -0.72766927
    H     -2.78972518      3.11708805      0.24929677
    C     -3.63953822      1.18311120      0.00000000
    O     -4.83882163      1.31936136      0.22108490
    N     -2.96435481      0.02123926      0.18420489
    H     -1.96933021      0.00000000      0.00000000
    C     -3.62726041     -1.17287359      0.65340968
    H     -4.66892439     -0.92096032      0.82783215
    H     -3.57232250     -1.97099111     -0.08573460
    H     -3.18581987     -1.52921881      1.58371976
 
 
 
