#p b3lyp 6-311+g(3df,2p) scf=tight nosymm

16_Peptide-Water_1_z_+30

0    1
    C      0.91595532      2.35528121      0.00000000
    H     -0.15580346      2.17469594      0.01903999
    H      1.17110241      2.93701801     -0.88270196
    H      1.20188699      2.94060135      0.87066271
    C      1.73433609      1.08403144     -0.01162955
    O      2.96007308      1.10729682     -0.02324583
    N      1.00528119     -0.06208423     -0.00914607
    H      0.00000000     -0.00000000     -0.00000000
    C      1.63578735     -1.36147216     -0.02078264
    H      2.70906733     -1.19961164     -0.04302278
    H      1.38087181     -1.93293196      0.87076327
    H      1.34335935     -1.93382254     -0.89995056
 
 
 
