#p b3lyp 6-311+g(3df,2p) scf=tight nosymm

17_Uracil-Uracil_BP_1_z_-30

0    1
    N      0.63926825      1.08072150     -0.00005584
    H     -0.38509353      1.18540740     -0.00088164
    C      1.13958856     -0.21025887      0.00086656
    O      0.38509353     -1.18540740      0.00088164
    C      2.58328596     -0.30742462      0.00199598
    H      3.03915607     -1.28197198      0.00278180
    C      3.32146540      0.82211419      0.00207068
    H      4.40131055      0.81259997      0.00289917
    N      2.73767618      2.05548389      0.00112400
    H      3.29118307      2.89628763      0.00120366
    C      1.36304154      2.25890560     -0.00000000
    O      0.86835840      3.36616472     -0.00081898
 
 
 
