#p b3lyp 6-311+g(3df,2p) scf=tight nosymm

18_Water-Pyridine_1_z_-30

0    1
    O      0.96929624      0.00034721     -0.05108578
    H      1.24229235     -0.00608079      0.86730482
    H      0.00000000     -0.00000000      0.00000000
 
 
 
