#p b3lyp 6-311+g(3df,2p) scf=tight nosymm

18_Water-Pyridine_2_y_+30

0    1
    O     -2.96481614      0.00034721      0.05108578
    H     -3.23781226     -0.00608079     -0.86730482
    H     -1.99551991      0.00000000      0.00000000
 
 
 
