#p b3lyp 6-311+g(3df,2p) scf=tight nosymm

19_MeOH-Pyridine_2_z_+30

0    1
    O     -2.92067615      0.08801830     -0.00148693
    H     -1.95279063     -0.00000000     -0.00000000
    C     -3.19555865      1.47118595      0.00000000
    H     -4.27591009      1.59407331     -0.00309808
    H     -2.80365651      1.97760392      0.88682020
    H     -2.79826081      1.98053743     -0.88273782
 
 
 
