#p b3lyp 6-311+g(3df,2p) scf=tight nosymm

19_MeOH-Pyridine_1_y_+30

0    1
    O      0.96788551      0.08801830      0.00148693
    H     -0.00000000      0.00000000     -0.00000000
    C      1.24276801      1.47118595      0.00000000
    H      2.32311945      1.59407331      0.00309808
    H      0.85086587      1.97760392     -0.88682020
    H      0.84547017      1.98053743      0.88273782
 
 
 
