#p b3lyp 6-311+g(3df,2p) scf=tight nosymm

22_AcOH-Uracil_1_y_+30

0    1
    C      1.08517559      0.07908336      0.00143423
    O      0.41375856      1.10237217     -0.00676747
    O      0.57897977     -1.14472990      0.00892873
    H     -0.41375856     -1.10237217      0.00676747
    C      2.58352513      0.07548138      0.00429758
    H      2.95434337      1.09313851     -0.00301400
    H      2.94198069     -0.45051022      0.88594306
    H      2.94549765     -0.46453293     -0.86736911
 
 
 
