#p b3lyp 6-311+g(3df,2p) scf=tight nosymm

28_Benzene-Uracil_pi-pi_2_y_-30

0    1
    C     -3.52866493      0.68048606     -1.20847218
    H     -3.63190392      1.20984160     -2.14524296
    C     -3.20687948     -0.67530525     -1.20796270
    H     -3.06796834     -1.19661155     -2.14529585
    C     -3.05734777     -1.35574007     -0.00000030
    H     -2.81159414     -2.40946981     -0.00140803
    C     -3.22815710     -0.68058066      1.20790686
    H     -3.11021927     -1.20582196      2.14606652
    C     -3.54810076      0.67606745      1.20855256
    H     -3.66861955      1.20123132      2.14575888
    C     -3.70024964      1.35456769      0.00000000
    H     -3.95160876      2.40684544     -0.00016729
 
 
 
