#p b3lyp 6-311+g(3df,2p) scf=tight nosymm

29_Pyridine-Uracil_pi-pi_1_y_-30

0    1
    N     -0.36788855     -1.34610766     -0.00026841
    C     -0.07908089     -0.69634675     -1.13751040
    H     -0.15706117     -1.27413960     -2.04975780
    C      0.29054512      0.64544970     -1.18917528
    H      0.50185639      1.10946700     -2.14194627
    C      0.37063929      1.36320864     -0.00000000
    H      0.65018085      2.40778569      0.00040223
    C      0.07860319      0.70487490      1.19018146
    H      0.11450435      1.21930706      2.13942027
    C     -0.28168323     -0.63916464      1.13713798
    H     -0.51362954     -1.17699328      2.04805940
 
 
 
