#p b3lyp 6-311+g(3df,2p) scf=tight nosymm

30_Benzene-Ethene_2_y_-30

0    1
    C     -3.43654554      0.69653429      1.20686639
    H     -3.43841189      1.23747502      2.14352141
    C     -3.43417969      1.39322192      0.00003961
    H     -3.43517182      2.47482319     -0.00000000
    C     -3.43626022      0.69649081     -1.20685572
    H     -3.43816588      1.23746201     -2.14350205
    C     -3.43654947     -0.69653164     -1.20686690
    H     -3.43841911     -1.23747621     -2.14352557
    C     -3.43419265     -1.39322212     -0.00003887
    H     -3.43519543     -2.47482163     -0.00000161
    C     -3.43626930     -0.69649350      1.20685639
    H     -3.43818227     -1.23745961      2.14349708
 
 
 
