#p b3lyp 6-311+g(3df,2p) scf=tight nosymm

34_Pentane-Pentane_2_y_-30

0    1
    C     -3.82708720      0.33480611     -2.53316648
    H     -4.66258726      1.03418388     -2.56319524
    H     -2.90645155      0.91718640     -2.56658994
    H     -3.86856395     -0.27493536     -3.43453883
    C     -3.88324163     -0.51728822     -1.27209867
    H     -3.05768644     -1.23316205     -1.27153644
    H     -4.80166415     -1.10894716     -1.26709647
    C     -3.82097765      0.31715915     -0.00000000
    H     -2.89973211      0.90732904      0.00022517
    H     -4.64550689      1.03639823      0.00006736
    C     -3.88353786     -0.51807152      1.27168085
    H     -3.05830995     -1.23427889      1.27046137
    H     -4.80221813     -1.10928069      1.26617265
    C     -3.82697102      0.33274982      2.53354552
    H     -4.66194567      1.03272120      2.56435060
    H     -3.86909724     -0.27809118      3.43419611
    H     -2.90588506      0.91436273      2.56794589
 
 
 
