#p b3lyp 6-311+g(3df,2p) scf=tight nosymm

35_Neopentane-Pentane_1_z_+30

0    1
    C      0.03571203      0.33317179      2.53279144
    H      0.98285453      0.87146019      2.56636702
    H     -0.76495923      1.07231283      2.56185371
    H     -0.03690482     -0.27342503      3.43414516
    C     -0.05733771     -0.51641989      1.27222649
    H     -0.99854860     -1.07148432      1.26995813
    H      0.73891901     -1.26427615      1.27093556
    C      0.03719785      0.31503147      0.00000000
    H     -0.75655135      1.06860544     -0.00010859
    H      0.98110972      0.86825773      0.00013796
    C     -0.05699416     -0.51633499     -1.27233304
    H     -0.99802988     -1.07170803     -1.27021694
    H      0.73949046     -1.26395633     -1.27110571
    C      0.03571658      0.33355815     -2.53269396
    H      0.98254284      0.87242927     -2.56609306
    H     -0.03654303     -0.27280919     -3.43423360
    H     -0.76539342      1.07223622     -2.56153158
 
 
 
