#p b3lyp 6-311+g(3df,2p) scf=tight nosymm

36_Neopentane-Neopentane_1_y_+30

0    1
    C     -0.00057417      0.00000085      0.00002468
    C     -0.50898701      1.43939132      0.00000000
    H     -0.15844456      1.97520031     -0.88334658
    H     -1.59953224      1.46835511      0.00079969
    H     -0.15707859      1.97559265      0.88255257
    C     -0.50818947     -0.71998623     -1.24673382
    H     -0.15711250     -1.75270687     -1.26899887
    H     -1.59872386     -0.73430220     -1.27250294
    H     -0.15630502     -0.22362316     -2.15230228
    C     -0.50829199     -0.71999299      1.24667256
    H     -0.15580238     -1.75221633      1.26975632
    H     -1.59882185     -0.73583143      1.27144830
    H     -0.15793150     -0.22267437      2.15230581
    C      1.52581518      0.00058748      0.00004795
    H      1.91399138      0.50986887      0.88324855
    H      1.91449560     -1.01872864     -0.00062685
    H      1.91397586      0.51106100     -0.88246923
 
 
 
