#p b3lyp 6-311+g(3df,2p) scf=tight nosymm

38_Cyclopentane-Cyclopentane_1_y_+30

0    1
    C     -0.16350750      1.28579828     -0.00000000
    H      0.69900153      1.94562917     -0.08441598
    H     -1.04307347      1.92225070      0.07989448
    C     -0.23597704      0.33915948     -1.22612961
    H      0.62111032      0.50539454     -1.87799770
    H     -1.12910482      0.50528862     -1.82613393
    C     -0.18175240     -1.08437906     -0.65047495
    H      0.26863337     -1.80028525     -1.33624028
    H     -1.18988650     -1.43577636     -0.42124062
    C      0.59408914     -0.91372978      0.65406377
    H      1.65370782     -0.75979591      0.43637061
    H      0.50914904     -1.76806155      1.32415239
    C     -0.01160612      0.36731027      1.22610685
    H      0.58808357      0.81593487      2.01632047
    H     -0.99246936      0.13902078      1.64679706
 
 
 
