#p b3lyp 6-311+g(3df,2p) scf=tight nosymm

39_Benzene-Cyclopentane_2_y_-30

0    1
    C     -3.50482014     -1.32303806      0.00017976
    H     -3.16675965     -2.35053745      0.00036914
    C     -3.61502493     -0.62556641      1.20182239
    H     -3.36175603     -1.11159820      2.13440044
    C     -4.05265127      0.69774771      1.20166175
    H     -4.13738389      1.23942759      2.13393124
    C     -4.38091278      1.32314805     -0.00000161
    H     -4.71947906      2.35020793      0.00000000
    C     -4.27138685      0.62540360     -1.20186364
    H     -4.52553541      1.11089111     -2.13420885
    C     -3.83286598     -0.69760281     -1.20183382
    H     -3.74806276     -1.23948803     -2.13407283
 
 
 
