#p b3lyp 6-311+g(3df,2p) scf=tight nosymm

40_Benzene-Neopentane_2_y_+30

0    1
    C     -2.73866046     -1.39144625     -0.00001072
    H     -2.80308137     -2.47120831     -0.00003659
    C     -2.69677587     -0.69569263      1.20721012
    H     -2.72781200     -1.23545287      2.14394710
    C     -2.61518147      0.69565717      1.20711847
    H     -2.58215051      1.23535337      2.14369223
    C     -2.57537289      1.39135101      0.00001072
    H     -2.51042335      2.47080820     -0.00000000
    C     -2.61668339      0.69575377     -1.20712437
    H     -2.58371720      1.23543387     -2.14370232
    C     -2.69838555     -0.69559290     -1.20720015
    H     -2.73038770     -1.23529390     -2.14394887
 
 
 
