#p b3lyp 6-311+g(3df,2p) scf=tight nosymm

41_Uracil-Pentane_1_y_+30

0    1
    N     -0.02626177     -0.46295546     -0.82137178
    H     -0.08409424     -0.97419805     -1.69176847
    C      0.29792941      0.89771750     -0.92697886
    O      0.49855225      1.40288804     -2.01795594
    C      0.35300983      1.57648789      0.35609276
    H      0.59981200      2.62384780      0.37730821
    C      0.09390943      0.89030199      1.48790978
    H      0.12008192      1.35045266      2.46456299
    N     -0.22383138     -0.44139781      1.47115029
    H     -0.43588013     -0.93712848      2.32114797
    C     -0.31339167     -1.19360471      0.31245878
    O     -0.61609527     -2.37082270      0.30745205
 
 
 
