#p b3lyp 6-311+g(3df,2p) scf=tight nosymm

43_Uracil-Neopentane_2_z_-30

0    1
    N     -4.14480597     -0.91419328      0.02988765
    H     -3.83761055     -1.87729017      0.03710340
    C     -4.28547813     -0.30516999      1.28457155
    O     -4.06728135     -0.93444062      2.30586447
    C     -4.69481619      1.08627230      1.20590488
    H     -4.84657104      1.63408971      2.11977839
    C     -4.86868076      1.66465762     -0.00000000
    H     -5.16608528      2.69680619     -0.11098557
    N     -4.67407661      0.97749288     -1.16791680
    H     -4.77929922      1.42788878     -2.06167000
    C     -4.27864056     -0.34854421     -1.22002579
    O     -4.07602090     -0.93987739     -2.26230183
 
 
 
