#p b3lyp 6-311+g(3df,2p) scf=tight nosymm

45_Ethyne-Pentane_1_y_+30

0    1
    C      0.00018712      0.60601837     -0.00000000
    H      0.00023929      1.66786560     -0.00043723
    C     -0.00014973     -0.60601974      0.00005934
    H     -0.00068478     -1.66784931     -0.00026991
 
 
 
