#p b3lyp 6-311+g(3df,2p) scf=tight nosymm

45_Ethyne-Pentane_2_z_-30

0    1
    C     -3.64602991      0.60601837      0.00000000
    H     -3.64608208      1.66786560      0.00043723
    C     -3.64569307     -0.60601974     -0.00005934
    H     -3.64515802     -1.66784931      0.00026991
 
 
 
