#p b3lyp 6-311+g(3df,2p) scf=tight nosymm

47_Benzene-Benzene_TS_2_z_+30

0    1
    C     -2.43501256      1.20559689      0.69663791
    H     -2.38239380      2.14077705      1.23726246
    C     -2.48344413      1.20723230     -0.69663791
    H     -2.46708777      2.14361220     -1.23739369
    C     -2.55062359      0.00172416     -1.39318798
    H     -2.58406811      0.00275052     -2.47397728
    C     -2.57145656     -1.20529154     -0.69656340
    H     -2.62535967     -2.14010362     -1.23785468
    C     -2.52184402     -1.20734522      0.69653737
    H     -2.53669370     -2.14370078      1.23763026
    C     -2.45276207     -0.00189515      1.39325278
    H     -2.41170603     -0.00359080      2.47387087
 
 
 
