#p b3lyp 6-311+g(3df,2p) scf=tight nosymm

53_Benzene-AcNH2_NH-pi_2_y_+30

0    1
    C     -2.48666901     -0.00082879      0.69768646
    H     -2.27936258     -0.92090225      1.22634683
    C     -2.74863686      1.17849576      1.39395676
    H     -2.75754946      1.17712186      2.47556956
    C     -2.99987945      2.35967619      0.69696271
    H     -3.20262961      3.27436482      1.23736771
    C     -2.99182252      2.36140886     -0.69696271
    H     -3.18821648      3.27742015     -1.23741409
    C     -2.73258949      1.18192207     -1.39393457
    H     -2.72869061      1.18318362     -2.47552085
    C     -2.47874407      0.00082879     -0.69768646
    H     -2.26481183     -0.91778036     -1.22616309
 
 
 
