#p b3lyp 6-311+g(3df,2p) scf=tight nosymm

58_Pyridine-Pyridine_CH-N_2_y_-30

0    1
    N     -2.95484705      0.91597414      0.00259397
    C     -2.97206631     -0.42663190     -0.00755715
    H     -2.00473502     -0.91597414     -0.00259397
    C     -4.14615124     -1.17618933     -0.02408888
    H     -4.09482168     -2.25565349     -0.03159854
    C     -5.36876196     -0.51344265     -0.03074710
    H     -6.29898766     -1.06453641     -0.04367307
    C     -5.36439005      0.87747129     -0.02042274
    H     -6.28627339      1.44152430     -0.02504168
    C     -4.14055585      1.54062493     -0.00389091
    H     -4.10677747      2.62326092      0.00450705
 
 
 
