#p b3lyp 6-311+g(3df,2p) scf=tight nosymm

62_Pentane-AcNH2_1_z_+30

0    1
    C      0.16851813      0.31602088      2.52900883
    H      1.13202225      0.82600094      2.52155566
    H     -0.60409430      1.08229505      2.60298433
    H      0.11937248     -0.29340158      3.43014993
    C     -0.01134830     -0.52224379      1.26988945
    H     -0.95791294     -1.06503601      1.30791690
    H      0.77583778     -1.27808525      1.22020277
    C      0.02795360      0.31753923     -0.00000000
    H     -0.77578218      1.06069449      0.03243256
    H      0.96429897      0.88362759     -0.03357700
    C     -0.10961754     -0.51068351     -1.27042066
    H     -1.03851706     -1.08172811     -1.22161012
    H      0.70232390     -1.24052199     -1.30863623
    C     -0.08306288      0.34748750     -2.52862997
    H      0.85577561      0.89608974     -2.60707191
    H     -0.19377252     -0.25329434     -3.43048872
    H     -0.88950215      1.08156228     -2.51204280
 
 
 
