#p b3lyp 6-311+g(3df,2p) scf=tight nosymm

66_MeNH2-Pyridine_1_z_-30

0    1
    N      0.75247021     -0.16639162      0.65848319
    H      0.00000000      0.00000000     -0.00000000
    H      1.58067696      0.24641005      0.24947096
    C      0.43954574      0.51830779      1.91164348
    H      1.24723413      0.35710286      2.62338530
    H      0.27625899      1.59745418      1.82575053
    H     -0.46055090      0.08143731      2.34131497
 
 
 
