#p b3lyp 6-311+g(3df,2p) scf=tight nosymm

5

0    1
    C     -0.02581460     -0.05055289      0.40568047
    C      1.10910726      0.26720663     -0.57396500
    N     -0.19973939     -1.48691102      0.50907584
    H     -0.74975542     -1.80801243     -0.28255387
    H     -0.73730234     -1.71741826      1.33591561
    H      0.24275133      0.35725998      1.38006835
    C     -1.26958669      0.66222942     -0.09472960
    O     -2.17970201      0.13659663     -0.69593547
    O     -1.22274328      1.98780287      0.17148688
    H     -2.02326581      2.37322699     -0.21959264
    H      0.87845625     -0.17020248     -1.54685695
    H      1.21259969      1.34464554     -0.69533120
    S      2.70835166     -0.33350096      0.01845293
    H      2.25664337     -1.56237001      0.28828466
 
 
 
