$molecule
0    1
    C     -1.84486852      0.10958503      0.00000000
    C     -0.60865817     -0.39942211      0.00000000
    C      0.60865817      0.39942211      0.00000000
    C      1.84486852     -0.10958503      0.00000000
    H     -2.72232377     -0.52576915      0.00000000
    H     -2.01556057      1.18164533      0.00000000
    H     -0.47628514     -1.47960442      0.00000000
    H      0.47628514      1.47960442      0.00000000
    H      2.72232377      0.52576915      0.00000000
    H      2.01556057     -1.18164533      0.00000000
$end
   
$rem
mem_static = 200
mem_total  = 7500
exchange = b3lyp
basis = G3Large
max_scf_cycles = 50
scf_convergence = 7
symmetry = false
xc_grid = 000075000302
$end
