$molecule
0    1
    C      1.44201513      0.24495076     -0.69350951
    C      1.44201513      0.24495076      0.69350951
    C     -0.55816191     -0.47085951     -1.43282513
    C     -0.55816191     -0.47085951      1.43282513
    C     -1.43966169      0.30347877     -0.70091467
    C     -1.43966169      0.30347877      0.70091467
    H      1.94782466     -0.54881824     -1.23049415
    H      1.34706449      1.17762225     -1.23301408
    H      1.34706449      1.17762225      1.23301408
    H      1.94782466     -0.54881824      1.23049415
    H     -0.24227008     -1.43880626     -1.06793240
    H     -0.50469112     -0.35528003     -2.51000256
    H     -0.50469112     -0.35528003      2.51000256
    H     -0.24227008     -1.43880626      1.06793240
    H     -1.99211947      1.08771225     -1.21100535
    H     -1.99211947      1.08771225      1.21100535
$end
   
$rem
mem_static = 200
mem_total  = 7500
exchange = b3lyp
basis = G3Large
max_scf_cycles = 50
scf_convergence = 7
symmetry = false
xc_grid = 000075000302
$end
