$molecule
0    1
    H     -0.53886692     -2.24361828      1.32579338
    C     -0.65877295     -1.36818703      0.70008820
    H     -0.79608199      1.84165487      0.00000000
    C     -0.65877295     -0.04467066      1.15549733
    C     -0.65877295     -1.36818703     -0.70008820
    H     -2.23230640      0.80012558      0.00000000
    C     -1.13085009      0.80520358      0.00000000
    C      1.44099164      0.52019450      0.69489520
    H     -0.78769599      0.24265142      2.19170762
    C      1.44099164      0.52019450     -0.69489520
    H     -0.53886692     -2.24361828     -1.32579338
    C     -0.65877295     -0.04467066     -1.15549733
    H     -0.78769599      0.24265142     -2.19170762
    H      1.37100562      1.45640077     -1.23647835
    H      1.91173078     -0.28626273      1.24115135
    H      1.37100562      1.45640077      1.23647835
    H      1.91173078     -0.28626273     -1.24115135
$end
   
$rem
mem_static = 200
mem_total  = 7500
exchange = b3lyp
basis = G3Large
max_scf_cycles = 50
scf_convergence = 7
symmetry = false
xc_grid = 000075000302
$end
