$molecule
0    1
   Si      0.00000000      0.00000000     -1.37623845
    C      0.00000000     -1.35357738     -0.07601308
    C      0.00000000      1.35357738     -0.07601308
    C      0.00000000     -0.74316821      1.12396726
    C      0.00000000      0.74316821      1.12396726
    H     -1.20433713      0.00000000     -2.24936336
    H      1.20433713      0.00000000     -2.24936336
    H      0.00000000     -2.43103669     -0.18113111
    H      0.00000000      2.43103669     -0.18113111
    H      0.00000000     -1.27765036      2.07065952
    H      0.00000000      1.27765036      2.07065952
$end
   
$rem
mem_static = 200
mem_total  = 7500
exchange = b3lyp
basis = G3Large
max_scf_cycles = 50
scf_convergence = 7
symmetry = false
xc_grid = 000075000302
$end
