$molecule
0    1
    C     -0.71731120      0.00000000      0.73536423
    C     -1.09398689      0.00000000     -0.56903169
    O      0.00000000      0.00000000     -1.38121424
    C      1.09398689      0.00000000     -0.56903169
    C      0.71731120      0.00000000      0.73536423
    H     -1.37199235      0.00000000      1.59213926
    H     -2.04808576      0.00000000     -1.06786468
    H      2.04808576      0.00000000     -1.06786468
    H      1.37199235      0.00000000      1.59213926
$end
   
$rem
mem_static = 200
mem_total  = 7500
exchange = b3lyp
basis = G3Large
max_scf_cycles = 50
scf_convergence = 7
symmetry = false
xc_grid = 000075000302
$end
