$molecule
0    1
    C     -0.59405997     -0.60847783     -1.07529447
    O     -0.50384894     -1.45637557      0.00000000
    C      1.35146958      0.16645665     -0.70127343
    C     -1.37353549      0.51339583     -0.68733081
    C     -0.59405997     -0.60847783      1.07529447
    C      1.35146958      0.16645665      0.70127343
    C     -1.37353549      0.51339583      0.68733081
    H     -0.56514030     -1.09111481     -2.04111220
    H      1.86271291     -0.63406374     -1.22416680
    H      1.31884012      1.10510765     -1.24090996
    H     -1.74836237      1.27688403     -1.35217963
    H     -0.56514030     -1.09111481      2.04111220
    H      1.86271291     -0.63406374      1.22416680
    H      1.31884012      1.10510765      1.24090996
    H     -1.74836237      1.27688403      1.35217963
$end
   
$rem
mem_static = 200
mem_total  = 7500
exchange = b3lyp
basis = G3Large
max_scf_cycles = 50
scf_convergence = 7
symmetry = false
xc_grid = 000075000302
$end
