$molecule
0    1
    H     -1.95893181      1.23117454      1.29239837
    C     -1.06070455      1.11528650      0.69655220
    C      0.18777280      0.75556340      1.24302535
    C     -1.06070455      1.11528650     -0.69655220
    H      2.34975742      0.20429125      0.00000000
    P      1.42058115      1.27945455      0.00000000
    C      0.18777280     -1.39749821      0.69647020
    H      0.37679586      0.79493041      2.30956065
    C      0.18777280     -1.39749821     -0.69647020
    H     -1.95893181      1.23117454     -1.29239837
    C      0.18777280      0.75556340     -1.24302535
    H      0.37679586      0.79493041     -2.30956065
    H      1.10246106     -1.60704827     -1.23710035
    H     -0.72033545     -1.63428128      1.23514835
    H      1.10246106     -1.60704827      1.23710035
    H     -0.72033545     -1.63428128     -1.23514835
$end
   
$rem
mem_static = 200
mem_total  = 7500
exchange = b3lyp
basis = G3Large
max_scf_cycles = 50
scf_convergence = 7
symmetry = false
xc_grid = 000075000302
$end
