$molecule
0    1
    C     -0.71355470      0.00000000     -0.69976624
    C     -1.24098496      0.00000000      0.55889443
    S      0.00000000      0.00000000      1.76913499
    C      1.24098496      0.00000000      0.55889443
    C      0.71355470      0.00000000     -0.69976624
    H     -1.31813550      0.00000000     -1.59705970
    H     -2.27881940      0.00000000      0.85336402
    H      2.27881940      0.00000000      0.85336402
    H      1.31813550      0.00000000     -1.59705970
$end
   
$rem
mem_static = 200
mem_total  = 7500
exchange = b3lyp
basis = G3Large
max_scf_cycles = 50
scf_convergence = 7
symmetry = false
xc_grid = 000075000302
$end
