$molecule
0    1
    C      0.82811617     -0.21159069      1.20475228
    S      1.44229834     -1.34965551      0.00000000
    C     -1.24908459     -0.55021650      0.70215920
    C      0.92063189      1.10965989      0.68648123
    C      0.82811617     -0.21159069     -1.20475228
    C     -1.24908459     -0.55021650     -0.70215920
    C      0.92063189      1.10965989     -0.68648123
    H      0.95673688     -0.45976412      2.25014884
    H     -1.31253023     -1.49358792      1.23028597
    H     -1.67759030      0.29044161      1.23347837
    H      0.81257101      1.98988549      1.30728656
    H      0.95673688     -0.45976412     -2.25014884
    H     -1.31253023     -1.49358792     -1.23028597
    H     -1.67759030      0.29044161     -1.23347837
    H      0.81257101      1.98988549     -1.30728656
$end
   
$rem
mem_static = 200
mem_total  = 7500
exchange = b3lyp
basis = G3Large
max_scf_cycles = 50
scf_convergence = 7
symmetry = false
xc_grid = 000075000302
$end
