$molecule
0    1
    C     -0.62421615      0.28593983      0.00000000
    H     -0.68092141      1.36354298      0.00000000
    H     -1.48969196     -0.35847389      0.00000000
    N      0.55573798     -0.26924613      0.00000000
    H      0.55368997     -1.30176730      0.00000000
    O      1.68540156      0.28000450      0.00000000
$end
   
$rem
mem_static = 200
mem_total  = 7500
exchange = b3lyp
basis = G3Large
max_scf_cycles = 50
scf_convergence = 7
symmetry = false
xc_grid = 000075000302
$end
