$molecule
0    1
    N      0.00000000      0.00000000     -0.36875514
    H      0.00000000      0.00000000     -1.38378706
    C      1.22577441      0.00000000      0.15784006
    H      1.33931519      0.00000000      1.22986726
    H      2.06809411      0.00000000     -0.51143623
    C     -1.22577441      0.00000000      0.15784006
    H     -1.33931519      0.00000000      1.22986726
    H     -2.06809411      0.00000000     -0.51143623
$end
   
$rem
mem_static = 200
mem_total  = 7500
exchange = b3lyp
basis = G3Large
max_scf_cycles = 50
scf_convergence = 7
symmetry = false
xc_grid = 000075000302
$end
