$molecule
0    1
    N      0.44531107      0.15160582      0.00000000
    N      1.57525922      0.20103025      0.00000000
    N     -0.78577603      0.28131268      0.00000000
    H     -1.23479425     -0.63394876      0.00000000
$end
   
$rem
mem_static = 200
mem_total  = 7500
exchange = b3lyp
basis = G3Large
max_scf_cycles = 50
scf_convergence = 7
symmetry = false
xc_grid = 000075000302
$end
