$molecule
0    1
    C     -1.14801340     -0.57975563      0.03120696
    C     -1.08021977      0.78192523      0.02639004
    N      1.30543734      1.13121582      0.11743731
    N      1.57534144     -0.09591015      0.00445069
    C      1.06337825     -1.19481218      0.00478589
    H     -1.31347496     -1.11800362      0.95840064
    H     -1.34813889     -1.12997993     -0.87963500
    H     -1.11376032      1.35419015      0.94257543
    H     -1.16281163      1.34381792     -0.89587357
    H      1.77093111      1.66037907     -0.62483752
    H      1.45133083     -2.15306667      0.31509912
$end
   
$rem
mem_static = 200
mem_total  = 7500
exchange = b3lyp
basis = G3Large
max_scf_cycles = 50
scf_convergence = 7
symmetry = false
xc_grid = 000075000302
$end
