$molecule
0    1
    C      1.27609030     -0.77327339      0.00000000
    C      1.23134714      0.58905335      0.00000000
    C     -1.18192370      1.07324965      0.00000000
    N     -1.49435181     -0.19905546      0.00000000
    C     -1.06638511     -1.33840161      0.00000000
    H      1.42015805     -1.33084875     -0.91708928
    H      1.42015805     -1.33084875      0.91708928
    H      1.34536190      1.15022014     -0.91956782
    H      1.34536190      1.15022014      0.91956782
    H     -1.30031441      1.61932418      0.92900348
    H     -1.30031441      1.61932418     -0.92900348
    H     -1.69518790     -2.22896367      0.00000000
$end
   
$rem
mem_static = 200
mem_total  = 7500
exchange = b3lyp
basis = G3Large
max_scf_cycles = 50
scf_convergence = 7
symmetry = false
xc_grid = 000075000302
$end
