$molecule
0    1
    C     -1.23057932      0.50086093      0.10676485
    C     -1.21313982     -0.87689741      0.07966200
    N      1.04747723     -1.33943774     -0.09695830
    N      1.41930904     -0.13949866      0.31481260
    C      0.94113033      1.02188955     -0.16660747
    H     -1.55687387      1.05985232     -0.76315454
    H     -1.33110864      1.02587966      1.04980541
    H     -1.46424383     -1.41746073     -0.82546536
    H     -1.24165948     -1.45884020      0.99008602
    H      0.85567971     -1.25245677     -1.09541294
    H      1.69857774     -0.13681875      1.28956059
    H      1.24615638      1.92097764      0.35709060
    H      0.82927455      1.09195015     -1.24018344
$end
   
$rem
mem_static = 200
mem_total  = 7500
exchange = b3lyp
basis = G3Large
max_scf_cycles = 50
scf_convergence = 7
symmetry = false
xc_grid = 000075000302
$end
