$molecule
0    1
    C     -1.03666214      1.00226740      0.00000000
    C     -0.99802835     -0.37323983      0.00000000
    C      1.15125891     -0.89785433      0.00000000
    N      1.59581197      0.37970342      0.00000000
    N      1.23898718      1.47513163      0.00000000
    H     -1.16993308      1.56007064     -0.91825211
    H     -1.16993308      1.56007064      0.91825211
    H     -1.19957221     -0.92033554     -0.91402846
    H     -1.19957221     -0.92033554      0.91402846
    H      1.39382151     -1.43273925      0.91491923
    H      1.39382151     -1.43273925     -0.91491923
$end
   
$rem
mem_static = 200
mem_total  = 7500
exchange = b3lyp
basis = G3Large
max_scf_cycles = 50
scf_convergence = 7
symmetry = false
xc_grid = 000075000302
$end
