$molecule
0    1
    C      1.42507240      0.06440402     -0.11370903
    H      2.50631571      0.18440705     -0.11597503
    C      0.72622821      0.10396603     -1.26024136
    H      1.22729235      0.27179108     -2.21101463
    C     -0.72622821     -0.10396603     -1.26024136
    H     -1.22729235     -0.27179108     -2.21101463
    C     -1.42507240     -0.06440402     -0.11370903
    H     -2.50631571     -0.18440705     -0.11597503
    C     -0.73180221      0.23941807      1.19532834
    H     -0.76332922      1.32996938      1.36186739
    H     -1.27211036     -0.20986806      2.03687758
    C      0.73180221     -0.23941807      1.19532834
    H      0.76332922     -1.32996938      1.36186739
    H      1.27211036      0.20986806      2.03687758
$end
   
$rem
mem_static = 200
mem_total  = 7500
exchange = b3lyp
basis = G3Large
max_scf_cycles = 50
scf_convergence = 7
symmetry = false
xc_grid = 000075000302
$end
