$molecule
0    1
    C     -0.10908503     -0.00006900      1.84867952
    C      0.40056211     -0.00003200      0.60878617
    C     -0.40056211     -0.00002500     -0.60878617
    H      1.48267742      0.00001000      0.47407613
    H     -1.48267742     -0.00005900     -0.47407613
    C      0.10908403      0.00002100     -1.84867952
    H      1.18301334      0.00028200     -2.02259357
    H      0.52643515      0.00005300      2.72908577
    H     -1.18301334      0.00049500      2.02259457
    H     -0.52643515     -0.00014900     -2.72908577
$end
   
$rem
mem_static = 200
mem_total  = 7500
exchange = b3lyp
basis = G3Large
max_scf_cycles = 50
scf_convergence = 7
symmetry = false
xc_grid = 000075000302
$end
