$molecule
0    1
    C     -0.31856309     -0.69825520     -1.19231234
    C      0.31856309      0.69825520     -1.19231234
    C     -0.11072503      1.49894442      0.04793701
    C      0.11072503     -1.49894442      0.04793701
    C     -0.05699902      0.66607819      1.30609537
    C      0.05699902     -0.66607819      1.30609537
    H     -1.41258740     -0.59343917     -1.19298334
    H      1.41258740      0.59343917     -1.19298334
    H     -0.05360102     -1.24461235     -2.10588460
    H      0.05360102      1.24461235     -2.10588460
    H      0.52661715      2.38674668      0.16384705
    H     -0.52661715     -2.38674668      0.16384705
    H     -1.13213332      1.88889154     -0.08997403
    H      1.13213332     -1.88889154     -0.08997403
    H     -0.11206903      1.19954534      2.25468064
    H      0.11206903     -1.19954534      2.25468064
$end
   
$rem
mem_static = 200
mem_total  = 7500
exchange = b3lyp
basis = G3Large
max_scf_cycles = 50
scf_convergence = 7
symmetry = false
xc_grid = 000075000302
$end
