$molecule
0    1
    H      0.00000000     -1.42064140      1.60147345
    C      0.00000000      0.67017019      0.81481923
    C      0.00000000     -0.67017019      0.81481923
    C      0.00000000      0.78631122     -0.69969720
    C      0.00000000     -0.78631122     -0.69969720
    H      0.89010925     -1.24659935     -1.14610132
    H     -0.89010925     -1.24659935     -1.14610132
    H      0.00000000      1.42064140      1.60147345
    H     -0.89010925      1.24659935     -1.14610132
    H      0.89010925      1.24659935     -1.14610132
$end
   
$rem
mem_static = 200
mem_total  = 7500
exchange = b3lyp
basis = G3Large
max_scf_cycles = 50
scf_convergence = 7
symmetry = false
xc_grid = 000075000302
$end
