$molecule
0    1
    C      0.01586400     -0.90695526      1.30942037
    C      0.01586400     -0.90695526     -1.30942037
    C      0.01586400      0.50786514      1.21164034
    C      0.01586400      0.50786514     -1.21164034
    C     -0.14245604      1.18550534      0.00000000
    H      0.49837414     -1.20614534      0.00000000
    H      0.51550415     -1.33365538      2.18168062
    H      0.51550415     -1.33365538     -2.18168062
    H     -0.89669625     -1.45181541      1.06870030
    H     -0.89669625     -1.45181541     -1.06870030
    H      0.40551411      1.09119531      2.04603058
    H      0.40551411      1.09119531     -2.04603058
    H     -0.07300602      2.27075564      0.00000000
$end
   
$rem
mem_static = 200
mem_total  = 7500
exchange = b3lyp
basis = G3Large
max_scf_cycles = 50
scf_convergence = 7
symmetry = false
xc_grid = 000075000302
$end
