$molecule
0    1
    N      0.00000000      0.00000000     -2.11635772
    C      0.00000000      0.00000000     -0.96670818
    C      0.00000000      0.00000000      0.48949319
    H      0.51145108      0.88585925      0.86452423
    H      0.51145108     -0.88585925      0.86452423
    H     -1.02290216      0.00000000      0.86452423
$end
   
$rem
mem_static = 200
mem_total  = 7500
exchange = b3lyp
basis = G3Large
max_scf_cycles = 50
scf_convergence = 7
symmetry = false
xc_grid = 000075000302
$end
