$molecule
0    1
    C     -0.26241956     -0.59415450      0.00000000
    C      0.31843989      0.79068733      0.00000000
    O     -0.32857202      1.80653351      0.00000000
    H     -1.34937316     -0.55869977      0.00000000
    H      0.09702134     -1.13980205      0.87667771
    H      0.09702134     -1.13980205     -0.87667771
    H      1.42788216      0.83523752      0.00000000
$end
   
$rem
mem_static = 200
mem_total  = 7500
exchange = b3lyp
basis = G3Large
max_scf_cycles = 50
scf_convergence = 7
symmetry = false
xc_grid = 000075000302
$end
