$molecule
0    1
    S      0.00000000      0.00000000      1.59689526
    C      0.00000000     -0.73865082     -0.08529880
    C      0.00000000      0.73865082     -0.08529880
    H      0.91267835     -1.25059709     -0.35657441
    H     -0.91267835     -1.25059709     -0.35657441
    H     -0.91267835      1.25059709     -0.35657441
    H      0.91267835      1.25059709     -0.35657441
$end
   
$rem
mem_static = 200
mem_total  = 7500
exchange = b3lyp
basis = G3Large
max_scf_cycles = 50
scf_convergence = 7
symmetry = false
xc_grid = 000075000302
$end
