$molecule
0    1
    C     -0.22605285      0.02049785     -1.36715662
    S      0.80173243      0.67993453      0.00000000
    O      2.07797617     -0.12245587      0.00000000
    C     -0.22605285      0.02049785      1.36715662
    H      0.28675926      0.28081003     -2.28995747
    H     -1.21252420      0.48137455     -1.34297361
    H     -0.28803651     -1.06142176     -1.26510595
    H     -1.21252420      0.48137455      1.34297361
    H     -0.28803651     -1.06142176      1.26510595
    H      0.28675926      0.28081003      2.28995747
$end
   
$rem
mem_static = 200
mem_total  = 7500
exchange = b3lyp
basis = G3Large
max_scf_cycles = 50
scf_convergence = 7
symmetry = false
xc_grid = 000075000302
$end
