$molecule
0    1
    C     -0.50990475      0.34670662      0.00000000
    C      0.62680886     -0.31940471      0.00000000
    F     -1.70752993     -0.27625687      0.00000000
    H     -0.61789728      1.42276429      0.00000000
    H      0.65013401     -1.39937858      0.00000000
    H      1.55838909      0.22556925      0.00000000
$end
   
$rem
mem_static = 200
mem_total  = 7500
exchange = b3lyp
basis = G3Large
max_scf_cycles = 50
scf_convergence = 7
symmetry = false
xc_grid = 000075000302
$end
