$molecule
0    1
    C     -0.42309391     -0.55592376      0.00000000
    C      0.32021939      0.74958511      0.00000000
    O     -0.14801213      1.83215102      0.00000000
   Cl      2.14475018      0.53943073      0.00000000
    H     -1.06663086     -0.57613470      0.88043225
    H      0.23939819     -1.41297369      0.00000000
    H     -1.06663086     -0.57613470     -0.88043225
$end
   
$rem
mem_static = 200
mem_total  = 7500
exchange = b3lyp
basis = G3Large
max_scf_cycles = 50
scf_convergence = 7
symmetry = false
xc_grid = 000075000302
$end
