$molecule
0    1
    C     -0.34279042      0.12114935      0.00000000
    O      1.07909124      0.19851495      0.00000000
    H     -0.72836132     -0.38512781     -0.89071164
    H     -0.72836132     -0.38512781      0.89071164
    H     -0.71334689      1.14449069      0.00000000
    H      1.43376871     -0.69389936      0.00000000
$end
   
$rem
mem_static = 200
mem_total  = 7500
exchange = b3lyp
basis = G3Large
max_scf_cycles = 50
scf_convergence = 7
symmetry = false
xc_grid = 000075000302
$end
