$molecule
0    1
    C      0.00000000      0.00000000      0.46752772
    H     -0.86067249      0.00000000     -0.23376386
    H      0.86067249      0.00000000     -0.23376386
$end
   
$rem
mem_static = 200
mem_total  = 7500
exchange = b3lyp
basis = G3Large
max_scf_cycles = 50
scf_convergence = 7
symmetry = false
xc_grid = 000075000302
$end
