%nproc=8
%mem=6000MB
#p B3LYP/6-311+G(3df,2p) SCF=Tight NoSymm

Neutral Cl without BSSE correction

0 2
Cl  0.000 0.000 0.000


