%nproc=8
%mem=6000MB
#p B3LYP/6-311+G(3df,2p) SCF=Tight NoSymm

Neutral Ge without BSSE correction

0 3
Ge  0.000 0.000 0.000


