%nproc=8
%mem=6000MB
#p B3LYP/6-311+G(3df,2p) SCF=Tight NoSymm

Neutral K without BSSE correction

0 2
K  0.000 0.000 0.000

