$molecule
0    1
    C      0.00000000      1.19554785      0.15915367
    C      0.00000000      0.00000000     -0.80952337
    C      0.00000000     -1.19554785      0.15915367
    N      0.00000000     -0.61476092      1.53577990
    N      0.00000000      0.61476092      1.53577990
    H     -0.87901439      1.83826274      0.08056040
    H      0.87901439      1.83826274      0.08056040
    H     -0.88012160      0.00000000     -1.45129269
    H      0.88012160      0.00000000     -1.45129269
    H      0.87901439     -1.83826274      0.08056040
    H     -0.87901439     -1.83826274      0.08056040
$end
   
$rem
mem_static = 200
mem_total  = 7500
exchange = b3lyp
basis = G3Large
max_scf_cycles = 50
scf_convergence = 7
symmetry = false
xc_grid = 000075000302
$end
