$molecule
0    1
    C      1.96656716      0.00000000     -0.69986508
    C      1.17802150      1.18009924     -1.11958236
    C      0.00000000      0.71986250     -1.81108560
    C      0.00000000     -0.71986250     -1.81108560
    C      1.17802150     -1.18009924     -1.11958236
    C     -1.17802150      1.18009924     -1.11958236
    C     -1.96656716      0.00000000     -0.69986508
    C     -1.17802150     -1.18009924     -1.11958236
    C     -0.76372598      1.95149037      0.00000000
    C     -1.17802150      1.18009924      1.11958236
    C     -1.96656716      0.00000000      0.69986508
    C     -0.76372598     -1.95149037      0.00000000
    C     -1.17802150     -1.18009924      1.11958236
    C      0.00000000     -0.71986250      1.81108560
    C      0.00000000      0.71986250      1.81108560
    C      0.76372598      1.95149037      0.00000000
    C      1.17802150      1.18009924      1.11958236
    C      0.76372598     -1.95149037      0.00000000
    C      1.17802150     -1.18009924      1.11958236
    C      1.96656716      0.00000000      0.69986508
$end
   
$rem
mem_static = 200
mem_total  = 7500
exchange = b3lyp
basis = G3Large
max_scf_cycles = 50
scf_convergence = 7
symmetry = false
xc_grid = 000075000302
$end
