$molecule
0    1
    O     -1.85076499      3.20561900      0.00000000
    C     -1.25339174      2.17093818      0.00000000
    C     -1.21391049      0.71460165      0.00000000
    C     -1.21391049     -0.71460165      0.00000000
    C     -1.25339174     -2.17093818      0.00000000
    O     -1.85076499     -3.20561900      0.00000000
    C     -0.01190794     -1.40857814      0.00000000
    C      1.22581843     -0.69397649      0.00000000
    C      2.50678348      0.00000000      0.00000000
    O      3.70152999      0.00000000      0.00000000
    C      1.22581843      0.69397649      0.00000000
    C     -0.01190794      1.40857814      0.00000000
$end
   
$rem
mem_static = 200
mem_total  = 7500
exchange = b3lyp
basis = G3Large
max_scf_cycles = 50
scf_convergence = 7
symmetry = false
xc_grid = 000075000302
$end
