$molecule
0    1
    C      0.00000000      0.00000000     -4.57371693
    C      0.00000000      0.00000000     -3.36588337
    C      0.00000000      0.00000000     -2.01063245
    C      0.00000000      0.00000000     -0.79430240
    C      0.00000000      0.00000000      0.55989248
    C      0.00000000      0.00000000      1.77006669
    C      0.00000000      0.00000000      3.21960164
    H      0.00000000      0.00000000     -5.63602869
    H     -0.51035915     -0.88396798      3.61033435
    H     -0.51035915      0.88396798      3.61033435
    H      1.02071830      0.00000000      3.61033435
$end
   
$rem
mem_static = 200
mem_total  = 7500
exchange = b3lyp
basis = G3Large
max_scf_cycles = 50
scf_convergence = 7
symmetry = false
xc_grid = 000075000302
$end
