$molecule
0    1
    O     -0.01773382      2.66104630      0.00000000
    C      0.04044975      1.43946640      0.00000000
    C      1.23975948      0.62456019      0.00000000
    C      1.18016401     -0.73501102      0.00000000
    C     -0.06559823     -1.42503868      0.00000000
    C     -1.20531196     -0.68575173      0.00000000
    N     -1.14500917      0.67498890      0.00000000
    H      2.18017027      1.15832284      0.00000000
    H      2.09903269     -1.31073746      0.00000000
    H     -0.11364869     -2.50383820      0.00000000
    H     -2.19652753     -1.11955310      0.00000000
    H     -1.99574679      1.22154558      0.00000000
$end
   
$rem
mem_static = 200
mem_total  = 7500
exchange = b3lyp
basis = G3Large
max_scf_cycles = 50
scf_convergence = 7
symmetry = false
xc_grid = 000075000302
$end
