$molecule
0    1
    S     -2.16708553     -0.89763622     -0.50267262
    S     -2.16708553      0.89763622      0.50267262
    S     -0.89763622     -2.16708553      0.50267262
    S      0.89763622     -2.16708553     -0.50267262
    S      2.16708553     -0.89763622      0.50267262
    S      2.16708553      0.89763622     -0.50267262
    S      0.89763622      2.16708553      0.50267262
    S     -0.89763622      2.16708553     -0.50267262
$end
   
$rem
mem_static = 200
mem_total  = 7500
exchange = b3lyp
basis = G3Large
max_scf_cycles = 50
scf_convergence = 7
symmetry = false
xc_grid = 000075000302
$end
