$molecule
0    1
    C      0.88790030      0.88790030     -0.88790030
    C      0.00000000      0.00000000      0.00000000
    C     -0.88790030     -0.88790030     -0.88790030
    C      0.88790030     -0.88790030      0.88790030
    C     -0.88790030      0.88790030      0.88790030
    H      1.53173284      0.28224124     -1.53173284
    H      0.28224124      1.53173284     -1.53173284
    H      1.53173284      1.53173284     -0.28224124
    H     -0.28224124     -1.53173284     -1.53173284
    H     -1.53173284     -1.53173284     -0.28224124
    H     -1.53173284     -0.28224124     -1.53173284
    H      1.53173284     -1.53173284      0.28224124
    H      1.53173284     -0.28224124      1.53173284
    H      0.28224124     -1.53173284      1.53173284
    H     -1.53173284      1.53173284      0.28224124
    H     -1.53173284      0.28224124      1.53173284
    H     -0.28224124      1.53173284      1.53173284
$end
   
$rem
mem_static = 200
mem_total  = 7500
exchange = b3lyp
basis = G3Large
max_scf_cycles = 50
scf_convergence = 7
symmetry = false
xc_grid = 000075000302
$end
