$molecule
0    1
    C      0.21113455     -1.06476771      0.00000000
    C     -0.61075333      0.22754824      0.00000000
    N      0.15511215      1.47613614      0.00000000
    H      0.75559875      1.53125777     -0.81589336
    H      0.75559875      1.53125777      0.81589336
    H     -0.43552575     -1.94752738      0.00000000
    H      0.85338956     -1.12075655     -0.88379355
    H      0.85338956     -1.12075655      0.88379355
    H     -1.26897212      0.24380413      0.87342742
    H     -1.26897212      0.24380413     -0.87342742
$end
   
$rem
mem_static = 200
mem_total  = 7500
exchange = b3lyp
basis = G3Large
max_scf_cycles = 50
scf_convergence = 7
symmetry = false
xc_grid = 000075000302
$end
