$molecule
0    1
    N      0.68562840     -0.13383380      1.35697840
    C     -0.51328085      0.26749736      0.61128662
    C     -0.48402933     -0.33088458     -0.79966195
    N      0.65154312      0.06259252     -1.63009290
    H      0.63784588     -1.11371111      1.61607405
    H      0.78869829      0.39961028      2.21168996
    H      0.58468083      1.04487708     -1.87661214
    H      1.50542632     -0.04554715     -1.09113983
    H     -1.45605714     -0.01862949      1.10448678
    H     -0.50925964      1.35936974      0.53579650
    H     -1.40822019     -0.06702668     -1.32162924
    H     -0.48297570     -1.42431417     -0.71717626
$end
   
$rem
mem_static = 200
mem_total  = 7500
exchange = b3lyp
basis = G3Large
max_scf_cycles = 50
scf_convergence = 7
symmetry = false
xc_grid = 000075000302
$end
