$molecule
0    1
    C     -1.79305044     -0.25397146      0.04406781
    C     -1.09339730      0.23194561     -1.23037494
    C      0.39099512     -0.15712592     -1.23515043
    C      1.12831062      0.34254103      0.02032893
    C      0.41856954     -0.14279623      1.28809114
    C     -1.06693932      0.23837449      1.30145019
    N      2.54818887     -0.02481410      0.08294044
    H     -1.81638951     -1.35055123      0.04648771
    H     -2.83512509      0.07909318      0.05436930
    H     -1.59227259     -0.17108573     -2.11665720
    H     -1.18068569      1.32335496     -1.29577040
    H      0.88481752      0.23541892     -2.13066653
    H      0.48289105     -1.25035002     -1.28005668
    H      1.09274023      1.43945508      0.01779864
    H      0.93291415      0.26204349      2.16284701
    H      0.51290741     -1.23582397      1.34512328
    H     -1.15752097      1.32948534      1.36517450
    H     -1.54702605     -0.16331163      2.19849263
    H      2.64944648     -1.03567992      0.10313137
    H      3.04062598      0.30379812     -0.74162676
$end
   
$rem
mem_static = 200
mem_total  = 7500
exchange = b3lyp
basis = G3Large
max_scf_cycles = 50
scf_convergence = 7
symmetry = false
xc_grid = 000075000302
$end
