$molecule
0    1
    C     -1.13154343     -0.12649926      0.00000000
    C      0.23304191      0.49271227      0.00000000
    C      1.38054560     -0.17642705      0.00000000
    H     -1.07698789     -1.21687451      0.00000000
    H     -1.70535966      0.18729968     -0.87791415
    H     -1.70535966      0.18729968      0.87791415
    H      0.26184666      1.58045978      0.00000000
    H      1.40734323     -1.26159309      0.00000000
    H      2.33647324      0.33362249      0.00000000
$end
   
$rem
mem_static = 200
mem_total  = 7500
exchange = b3lyp
basis = G3Large
max_scf_cycles = 50
scf_convergence = 7
symmetry = false
xc_grid = 000075000302
$end
