$molecule
0    1
    C     -1.88027285     -0.32890700     -0.00123733
    C     -0.56283016      0.42581035     -0.01210493
    N      0.56180559     -0.34443522     -0.03231723
    C      1.89162422      0.24177095      0.00269618
    O     -0.51591930      1.64564461     -0.01202985
    H     -2.47089694     -0.01200467     -0.86172297
    H     -2.43450218     -0.05182872      0.89675170
    H     -1.76651015     -1.41389020     -0.02853983
    H      0.47046154     -1.34374113      0.03376858
    H      1.94037267      1.07983019     -0.69174622
    H      2.62057009     -0.51223898     -0.29279094
    H      2.14609747      0.61398982      0.99927283
$end
   
$rem
mem_static = 200
mem_total  = 7500
exchange = b3lyp
basis = G3Large
max_scf_cycles = 50
scf_convergence = 7
symmetry = false
xc_grid = 000075000302
$end
