$molecule
0    1
    C     -1.95848149     -0.08986343      0.00000000
    C     -0.53829219      0.39058597      0.00000000
    C      0.53829219     -0.39058597      0.00000000
    C      1.95848149      0.08986343      0.00000000
    H     -2.01216151     -1.18054743      0.00000000
    H     -2.50075390      0.27605920     -0.87805711
    H     -2.50075390      0.27605920      0.87805711
    H     -0.39879113      1.47086761      0.00000000
    H      0.39879113     -1.47086761      0.00000000
    H      2.01216151      1.18054743      0.00000000
    H      2.50075390     -0.27605920      0.87805711
    H      2.50075390     -0.27605920     -0.87805711
$end
   
$rem
mem_static = 200
mem_total  = 7500
exchange = b3lyp
basis = G3Large
max_scf_cycles = 50
scf_convergence = 7
symmetry = false
xc_grid = 000075000302
$end
