$molecule
0    1
    C     -2.66081909     -0.21939520      0.00000000
    C     -1.49350804      0.43118800      0.00000000
    C     -0.18979294     -0.20868085      0.00000000
    C      0.97455680      0.45065712      0.00000000
    C      2.32822447     -0.18539181      0.00000000
    H     -2.70659981     -1.30332561      0.00000000
    H     -3.60561495      0.30906126      0.00000000
    H     -1.49500849      1.51910361      0.00000000
    H     -0.18242591     -1.29737842      0.00000000
    H      0.95408424      1.53914734      0.00000000
    H      2.26082003     -1.27496116      0.00000000
    H      2.90804185      0.11998786      0.87751065
    H      2.90804185      0.11998786     -0.87751065
$end
   
$rem
mem_static = 200
mem_total  = 7500
exchange = b3lyp
basis = G3Large
max_scf_cycles = 50
scf_convergence = 7
symmetry = false
xc_grid = 000075000302
$end
