$molecule
0    1
    C      0.00000000      0.00000000      0.00000000
    C      0.00000000      0.00000000     -1.30115726
    C      0.00000000      0.00000000      1.30115726
    H     -0.65550927     -0.65550927     -1.86483273
    H      0.65550927      0.65550927     -1.86483273
    H     -0.65550927      0.65550927      1.86483273
    H      0.65550927     -0.65550927      1.86483273
$end
   
$rem
mem_static = 200
mem_total  = 7500
exchange = b3lyp
basis = G3Large
max_scf_cycles = 50
scf_convergence = 7
symmetry = false
xc_grid = 000075000302
$end
