$molecule
0    1
    C      0.00000000     -2.55684792     -0.29950639
    C      0.00000000     -1.28238246      0.54608119
    C      0.00000000      0.00000000     -0.28975185
    C      0.00000000      1.28238246      0.54608119
    C      0.00000000      2.55684792     -0.29950639
    H      0.00000000     -3.45223662      0.32676560
    H     -0.88203972     -2.60330739     -0.94440641
    H      0.88203972     -2.60330739     -0.94440641
    H      0.87542517     -1.28244500      1.20530740
    H     -0.87542517     -1.28244500      1.20530740
    H      0.87592704      0.00000000     -0.95026646
    H     -0.87592704      0.00000000     -0.95026646
    H      0.87542517      1.28244500      1.20530740
    H     -0.87542517      1.28244500      1.20530740
    H      0.88203972      2.60330739     -0.94440641
    H      0.00000000      3.45223662      0.32676560
    H     -0.88203972      2.60330739     -0.94440641
$end
   
$rem
mem_static = 200
mem_total  = 7500
exchange = b3lyp
basis = G3Large
max_scf_cycles = 50
scf_convergence = 7
symmetry = false
xc_grid = 000075000302
$end
