$molecule
0    1
    C      1.24201071      0.66554726     -0.58120802
    C      1.24201071     -0.66554726     -0.58120802
    C      0.00000000     -1.12164890      0.21150049
    C     -1.24201071     -0.66554726     -0.58120802
    C     -1.24201071      0.66554726     -0.58120802
    C      0.00000000      1.12164890      0.21150049
    C      0.00000000      0.00000000      1.29565544
    H      1.93016660      1.33333696     -1.08006054
    H      1.93016660     -1.33333696     -1.08006054
    H      0.00000000     -2.15619172      0.54783285
    H     -1.93016660     -1.33333696     -1.08006054
    H     -1.93016660      1.33333696     -1.08006054
    H      0.00000000      2.15619172      0.54783285
    H      0.89792376      0.00000000      1.91537605
    H     -0.89792376      0.00000000      1.91537605
$end
   
$rem
mem_static = 200
mem_total  = 7500
exchange = b3lyp
basis = G3Large
max_scf_cycles = 50
scf_convergence = 7
symmetry = false
xc_grid = 000075000302
$end
