$molecule
0    1
    C     -1.57845162     -0.63319189      0.37344637
    C     -1.57845162      0.63319189     -0.37344637
    C     -0.63319189      1.57845162     -0.37344637
    C      0.63319189      1.57845162      0.37344637
    C      1.57845162      0.63319189      0.37344637
    C      1.57845162     -0.63319189     -0.37344637
    C      0.63319189     -1.57845162     -0.37344637
    C     -0.63319189     -1.57845162      0.37344637
    H     -2.49315756     -0.83882901      0.92587549
    H     -2.49315756      0.83882901     -0.92587549
    H     -0.83882901      2.49315756     -0.92587549
    H      0.83882901      2.49315756      0.92587549
    H      2.49315756      0.83882901      0.92587549
    H      2.49315756     -0.83882901     -0.92587549
    H      0.83882901     -2.49315756     -0.92587549
    H     -0.83882901     -2.49315756      0.92587549
$end
   
$rem
mem_static = 200
mem_total  = 7500
exchange = b3lyp
basis = G3Large
max_scf_cycles = 50
scf_convergence = 7
symmetry = false
xc_grid = 000075000302
$end
