$molecule
0    1
    C     -0.09646221     -0.24647003     -0.74131416
    C     -0.09646221     -0.24647003      0.74131416
    N     -0.18959714      1.02039605      0.00000000
    H     -0.99395635     -0.52548782     -1.28088854
    H      0.83171794     -0.48683516     -1.24977971
    H     -0.99395635     -0.52548782      1.28088854
    H      0.83171794     -0.48683516      1.24977971
    H      0.70699839      1.49718997      0.00000000
$end
   
$rem
mem_static = 200
mem_total  = 7500
exchange = b3lyp
basis = G3Large
max_scf_cycles = 50
scf_convergence = 7
symmetry = false
xc_grid = 000075000302
$end
