$molecule
0    1
    C      0.12838276      1.81706666     -0.18614930
    N     -0.48692452      0.51926767      0.04641813
    N      0.48692452     -0.51926767      0.04641813
    C     -0.12838276     -1.81706666     -0.18614930
    H     -0.64979918      2.58288438     -0.14895627
    H      0.57928050      1.82461536     -1.17869990
    H      0.90889004      2.08103713      0.54574317
    H     -1.01172779      0.53012154      0.92164417
    H      1.01172779     -0.53012154      0.92164417
    H     -0.57928050     -1.82461536     -1.17869990
    H      0.64979918     -2.58288438     -0.14895627
    H     -0.90889004     -2.08103713      0.54574317
$end
   
$rem
mem_static = 200
mem_total  = 7500
exchange = b3lyp
basis = G3Large
max_scf_cycles = 50
scf_convergence = 7
symmetry = false
xc_grid = 000075000302
$end
