$molecule
0    1
    C      0.00000000      0.64395189      0.59988260
    C      0.00000000      0.00000000     -0.76240796
    C      0.00000000     -0.64395189      0.59988260
    H      0.00000000      1.57393048      1.14066420
    H     -0.91187897      0.00000000     -1.35934282
    H      0.91187897      0.00000000     -1.35934282
    H      0.00000000     -1.57393048      1.14066420
$end
   
$rem
mem_static = 200
mem_total  = 7500
exchange = b3lyp
basis = G3Large
max_scf_cycles = 50
scf_convergence = 7
symmetry = false
xc_grid = 000075000302
$end
