$molecule
0    1
    N     -1.31640780      0.33511708      0.09330500
    C     -1.37425122     -1.09368424     -0.22388465
    C     -0.16097205     -1.89479238      0.26793529
    C      1.14149086     -1.25102512     -0.22084040
    C      1.18907800      0.23868226      0.14203005
    C     -0.06993382      0.97920913     -0.34510419
    C     -0.07728389      2.44492035      0.07545492
    H     -1.43043708      0.47034081      1.09432469
    H     -2.30142603     -1.49897345      0.18920883
    H     -1.45078685     -1.18745440     -1.31383275
    H     -0.23106905     -2.93240664     -0.07472120
    H     -0.16796883     -1.92185783      1.36447717
    H      2.00851953     -1.77245266      0.19456231
    H      1.20786780     -1.35793642     -1.31057678
    H      2.08414559      0.70496350     -0.28312006
    H      1.26215732      0.34978038      1.23180221
    H     -0.07686670      0.93680099     -1.44270273
    H     -0.08460574      2.53608915      1.16677377
    H      0.81125821      2.96291987     -0.29274898
    H     -0.96250824      2.95175963     -0.31234250
$end
   
$rem
mem_static = 200
mem_total  = 7500
exchange = b3lyp
basis = G3Large
max_scf_cycles = 50
scf_convergence = 7
symmetry = false
xc_grid = 000075000302
$end
