$molecule
0    1
    C      0.00000000      1.17547992     -0.04516446
    O      0.00000000      0.00000000     -0.82885017
    C      0.00000000     -1.17547992     -0.04516446
    H      0.00000000      2.02266768     -0.73028906
    H     -0.89153641      1.23501170      0.59493930
    H      0.89153641      1.23501170      0.59493930
    H      0.00000000     -2.02266768     -0.73028906
    H     -0.89153641     -1.23501170      0.59493930
    H      0.89153641     -1.23501170      0.59493930
$end
   
$rem
mem_static = 200
mem_total  = 7500
exchange = b3lyp
basis = G3Large
max_scf_cycles = 50
scf_convergence = 7
symmetry = false
xc_grid = 000075000302
$end
