$molecule
0    1
    C     -2.10355584     -0.66462818      0.00000000
    C     -1.01429257      0.37028488      0.00000000
    O      0.21520640     -0.23826727      0.00000000
    C      1.34806093      0.55833417      0.00000000
    C      2.54953712      0.00433570      0.00000000
    O     -1.16549919      1.56203653      0.00000000
    H     -3.07177923     -0.17081536      0.00000000
    H     -2.01001504     -1.30397535      0.87977689
    H     -2.01001504     -1.30397535     -0.87977689
    H      1.15096989      1.62152164      0.00000000
    H      2.68397839     -1.06939874      0.00000000
    H      3.42740418      0.63454734      0.00000000
$end
   
$rem
mem_static = 200
mem_total  = 7500
exchange = b3lyp
basis = G3Large
max_scf_cycles = 50
scf_convergence = 7
symmetry = false
xc_grid = 000075000302
$end
