$molecule
0    1
    C      0.00000000     -1.59003453     -0.40317544
    C      0.00000000     -0.66663536      0.77921992
    C      0.00000000      0.66663536      0.77921992
    C      0.00000000      1.59003453     -0.40317544
    H      0.00000000     -1.06180000     -1.35655307
    H     -0.87748685     -2.24459253     -0.38321159
    H      0.87748685     -2.24459253     -0.38321159
    H      0.00000000     -1.16307375      1.74693176
    H      0.00000000      1.16307375      1.74693176
    H      0.00000000      1.06180000     -1.35655307
    H     -0.87748685      2.24459253     -0.38321159
    H      0.87748685      2.24459253     -0.38321159
$end
   
$rem
mem_static = 200
mem_total  = 7500
exchange = b3lyp
basis = G3Large
max_scf_cycles = 50
scf_convergence = 7
symmetry = false
xc_grid = 000075000302
$end
