$molecule
0    1
    C     -1.98738850      0.05206832      0.25131464
    C     -0.85602565      0.18024385     -0.43328693
    C      0.40689365     -0.59127514     -0.18193276
    C      1.59557415      0.31245406      0.17682171
    H     -2.08215496     -0.66050422      1.06475947
    H     -2.86202376      0.64996610      0.02397945
    H     -0.80973401      0.91076357     -1.23976541
    H      0.66008119     -1.16569490     -1.08122567
    H      0.23782513     -1.31957273      0.61666199
    H      1.79033868      1.04143311     -0.61426668
    H      2.50525339     -0.27561616      0.31864422
    H      1.40136069      0.86573414      1.09829596
$end
   
$rem
mem_static = 200
mem_total  = 7500
exchange = b3lyp
basis = G3Large
max_scf_cycles = 50
scf_convergence = 7
symmetry = false
xc_grid = 000075000302
$end
