#p b3lyp 6-311+g(3df,2p) scf=tight nosymm

AD4

0    1
    C      0.62324918      0.44075812     -1.95016355
    C     -0.62324918     -0.44075812     -1.95016355
    C      1.91958754     -0.36472010     -1.95016255
    C     -1.91958754      0.36472010     -1.95016255
    H      0.59762917      1.09858231     -1.07222430
    H      0.59762817      1.09858331     -2.82810180
    H     -0.59762917     -1.09858231     -1.07222430
    H     -0.59762817     -1.09858331     -2.82810180
    H      2.79738679      0.28809108     -1.95016255
    H      1.97878756     -1.00728329     -1.06614830
    H      1.97878856     -1.00728429     -2.83417580
    H     -2.79738679     -0.28809108     -1.95016255
    H     -1.97878756      1.00728329     -1.06614830
    H     -1.97878856      1.00728429     -2.83417580
    C      0.62324918     -0.44075812      1.95016355
    C     -0.62324918      0.44075812      1.95016355
    C      1.91958754      0.36472010      1.95016255
    C     -1.91958754     -0.36472010      1.95016255
    H      0.59762917     -1.09858231      1.07222430
    H      0.59762817     -1.09858331      2.82810180
    H     -0.59762917      1.09858231      1.07222430
    H     -0.59762817      1.09858331      2.82810180
    H      2.79738679     -0.28809108      1.95016255
    H      1.97878756      1.00728329      1.06614830
    H      1.97878856      1.00728429      2.83417580
    H     -2.79738679      0.28809108      1.95016255
    H     -1.97878756     -1.00728329      1.06614830
    H     -1.97878856     -1.00728429      2.83417580
 
 
 
