#p b3lyp 6-311+g(3df,2p) scf=tight nosymm

AM2

0    1
    C      0.00000000      0.00000000      0.76298819
    C      0.00000000      0.00000000     -0.76298819
    H     -0.88280903      0.50969003      1.15804011
    H      0.00000000     -1.01938007      1.15804011
    H      0.88280903      0.50969003      1.15804011
    H      0.88280903     -0.50969003     -1.15804011
    H     -0.88280903     -0.50969003     -1.15804011
    H      0.00000000      1.01938007     -1.15804011
 
 
 
