$molecule
1    1
    O      0.00000000      0.00000000     -2.06340459
    C      0.00000000      0.00000000     -0.94192072
    C      0.00000000      0.00000000      0.50212542
    H     -0.51999571     -0.90065899      0.83439996
    H     -0.51999571      0.90065899      0.83439996
    H      1.03999142      0.00000000      0.83439996
$end
   
$rem
mem_static = 200
mem_total  = 7500
exchange = b3lyp
basis = G3Large
max_scf_cycles = 50
scf_convergence = 7
symmetry = false
xc_grid = 000075000302
$end
