$molecule
0    2
    C      1.22573444      0.73088017     -0.09676243
    C      1.22573444     -0.73088017     -0.09676243
    C      0.00000000     -1.40330294     -0.14213074
    C     -1.22573444     -0.73088017     -0.09676243
    C     -1.22573444      0.73088017     -0.09676243
    C      0.00000000      1.40330294     -0.14213074
    H      2.15278532      1.28179538     -0.13138372
    H      2.15278532     -1.28179538     -0.13138372
    H      0.00000000     -2.48650374     -0.17568557
    H     -2.15278532     -1.28179538     -0.13138372
    H     -2.15278532      1.28179538     -0.13138372
    H      0.00000000      2.48650374     -0.17568557
   Li      0.00000000      0.00000000      1.54821723
$end
   
$rem
mem_static = 200
mem_total  = 7500
exchange = b3lyp
basis = G3Large
max_scf_cycles = 50
scf_convergence = 7
symmetry = false
xc_grid = 000075000302
$end
