$molecule
0    1
    C      0.00000000      0.66709014     -0.93842870
    C      0.00000000     -0.66709014     -0.93842870
    H      0.92284046      1.23043970     -0.93833619
    H     -0.92284046      1.23043970     -0.93833619
    H      0.92284046     -1.23043970     -0.93833619
    H     -0.92284046     -1.23043970     -0.93833619
    F      0.00000000      0.00000000      2.10748388
    F      0.00000000      0.00000000      3.52271826
$end
   
$rem
mem_static = 200
mem_total  = 7500
exchange = b3lyp
basis = G3Large
max_scf_cycles = 50
scf_convergence = 7
symmetry = false
xc_grid = 000075000302
$end
