$molecule
0    2
    C     -0.55536678     -0.28560395      0.00000000
    C      0.80048165      0.33374176      0.00000000
    H     -1.34545580      0.47415425      0.00000000
    H     -0.71187996     -0.90430192      0.88313334
    H     -0.71187996     -0.90430192     -0.88313334
    H      1.26205042      0.64315589      0.92293212
    H      1.26205042      0.64315589     -0.92293212
$end
   
$rem
mem_static = 200
mem_total  = 7500
exchange = b3lyp
basis = G3Large
max_scf_cycles = 50
scf_convergence = 7
symmetry = false
xc_grid = 000075000302
$end
