$molecule
0    1
    N      0.00000000      0.00000000      0.87037732
   Cl      0.00000000      0.00000000     -1.42272995
    F      0.00000000      0.00000000     -3.12215047
    H     -0.47329133     -0.81976463      1.22483436
    H     -0.47329133      0.81976463      1.22483436
    H      0.94658265      0.00000000      1.22483436
$end
   
$rem
mem_static = 200
mem_total  = 7500
exchange = b3lyp
basis = G3Large
max_scf_cycles = 50
scf_convergence = 7
symmetry = false
xc_grid = 000075000302
$end
