$molecule
0    1
    C      0.70301495      1.81564487      0.00000000
    H      0.18871499      2.20208284      0.87966394
    H      0.18871499      2.20208284     -0.87966394
    H      1.71433588      2.21892684      0.00000000
    C      0.70301495      0.29266798      0.00000000
    H      1.24341791     -0.07694399     -0.87442594
    H      1.24341791     -0.07694399      0.87442594
    C     -0.70301495     -0.29266798      0.00000000
    H     -1.24341791      0.07694399     -0.87442594
    H     -1.24341791      0.07694399      0.87442594
    C     -0.70301495     -1.81564487      0.00000000
    H     -0.18871499     -2.20208284      0.87966394
    H     -1.71433588     -2.21892684      0.00000000
    H     -0.18871499     -2.20208284     -0.87966394
$end
   
$rem
mem_static = 200
mem_total  = 7500
exchange = b3lyp
basis = G3Large
max_scf_cycles = 50
scf_convergence = 7
symmetry = false
xc_grid = 000075000302
$end
