$molecule
0    1
    C     -1.82634097      1.23514926      0.02248765
    C     -2.03390695     -0.25579863     -0.21408033
    C     -0.89899003     -1.14121357      0.29829963
    C      0.46752187     -0.84166159     -0.33173433
    C      1.34927080      0.08924334      0.49542061
    C      2.66815671      0.40053532     -0.19928734
    H     -0.96057303      1.60887123     -0.52219531
    H     -1.67131398      1.44479024      1.08113157
    H     -2.69294890      1.80606022     -0.30801433
    H     -2.15951194     -0.43546862     -1.28453426
    H     -2.96603388     -0.56745361      0.26097863
    H     -1.16964602     -2.18062749      0.10640464
    H     -0.82304704     -1.04150357      1.38492355
    H      0.32207388     -0.41335562     -1.32845925
    H      1.01619483     -1.77385352     -0.48318631
    H      1.54334079     -0.38250962      1.46140054
    H      0.81739784      1.01627428      0.70974260
    H      3.30200266      1.04468627      0.40814062
    H      2.49450572      0.90313228     -1.15085127
    H      3.22184767     -0.51529661     -0.40658732
$end
   
$rem
mem_static = 200
mem_total  = 7500
exchange = b3lyp
basis = G3Large
max_scf_cycles = 50
scf_convergence = 7
symmetry = false
xc_grid = 000075000302
$end
