$molecule
0    1
    C     -0.48847396     -0.07896499      2.70980580
    C      0.71515095      0.19842099      1.81634287
    C      0.55799496     -0.33748398      0.39477897
    C     -0.55799496      0.33748398     -0.39477897
    C     -0.71515095     -0.19842099     -1.81634287
    C      0.48847396      0.07896499     -2.70980580
    H     -0.70801195     -1.14681592      2.73748780
    H     -1.38052190      0.43474697      2.35655883
    H     -0.30377298      0.24967798      3.73140773
    H      1.60299988     -0.24873198      2.26672583
    H      0.90041793      1.27445691      1.77329087
    H      0.36577497     -1.41438790      0.43557097
    H      1.50413589     -0.21126998     -0.13369999
    H     -0.36577497      1.41438790     -0.43557097
    H     -1.50413589      0.21126998      0.13369999
    H     -1.60299988      0.24873198     -2.26672583
    H     -0.90041793     -1.27445691     -1.77329087
    H      0.30377298     -0.24967798     -3.73140773
    H      1.38052190     -0.43474697     -2.35655883
    H      0.70801195      1.14681592     -2.73748780
$end
   
$rem
mem_static = 200
mem_total  = 7500
exchange = b3lyp
basis = G3Large
max_scf_cycles = 50
scf_convergence = 7
symmetry = false
xc_grid = 000075000302
$end
