$molecule
0    1
    C      2.71179265     -0.43475702      0.12181674
    C      1.21263776     -0.40573702     -0.14821624
    C      0.63272880      0.99251088      0.02690975
    C     -0.84593809      1.13767087     -0.32836723
    C     -1.79086002      0.25488793      0.49763271
    C     -2.11759300     -1.08283597     -0.15946924
    H      2.92737964     -0.09785204      1.13584267
    H      3.24144061      0.22541193     -0.56484421
    H      3.12295662     -1.43655795      0.00800575
    H      0.71142680     -1.10107997      0.52663771
    H      1.01263078     -0.75660200     -1.16358217
    H      1.21348276      1.68833283     -0.58475321
    H      0.77779579      1.30467486      1.06554467
    H     -0.98810308      0.91949188     -1.39069815
    H     -1.12003307      2.18536579     -0.19382224
    H     -2.72677695      0.78887689      0.66717970
    H     -1.35454405      0.08873294      1.48594964
    H     -2.78170495     -1.67909193      0.46524672
    H     -1.22240606     -1.66983893     -0.35182622
    H     -2.61631296     -0.92160398     -1.11518717
$end
   
$rem
mem_static = 200
mem_total  = 7500
exchange = b3lyp
basis = G3Large
max_scf_cycles = 50
scf_convergence = 7
symmetry = false
xc_grid = 000075000302
$end
