$molecule
0    1
    C      2.69384705     -0.45550207     -0.01906045
    C      1.33189915     -0.01850610      0.50497051
    C      0.48052721      0.62809985     -0.58064941
    C     -0.84923569      1.18427181     -0.07518644
    C     -1.75461062      0.15402589      0.59842651
    C     -2.09737360     -1.02506103     -0.30409643
    H      3.25154601      0.39707587     -0.40626242
    H      2.58190006     -1.17310901     -0.83195839
    H      3.29458801     -0.92354303      0.75923649
    H      1.46098414      0.68897385      1.32809145
    H      0.81005519     -0.88240104      0.92023048
    H      0.30391223     -0.09819309     -1.37772535
    H      1.05122717      1.44150480     -1.03586037
    H     -1.38938865      1.63065678     -0.91411138
    H     -0.64679770      1.99503175      0.62918750
    H     -2.67586656      0.65069085      0.90755248
    H     -1.28503566     -0.20947108      1.51390744
    H     -2.81344855     -1.69197198      0.17355754
    H     -1.21346366     -1.61250198     -0.54879641
    H     -2.53526557     -0.68007105     -1.24145336
$end
   
$rem
mem_static = 200
mem_total  = 7500
exchange = b3lyp
basis = G3Large
max_scf_cycles = 50
scf_convergence = 7
symmetry = false
xc_grid = 000075000302
$end
