$molecule
0    1
    C      1.73988062      1.15132122     -0.09755604
    C      1.70692163     -0.37055367     -0.20583004
    C      0.59034771     -1.04136562      0.60439191
    C     -0.71002920     -1.27165761     -0.16740804
    C     -1.41489015     -0.01913570     -0.68300900
    C     -1.87173411      0.91577323      0.43014192
    H      1.86326061      1.45477119      0.94234088
    H      0.82581869      1.60959818     -0.46769502
    H      2.57254956      1.56635819     -0.66440700
    H      2.67059456     -0.75351965      0.13325994
    H      1.61629463     -0.66667265     -1.25417296
    H      0.39724672     -0.45771067      1.50778184
    H      0.93878268     -2.01677655      0.94833888
    H     -1.40577515     -1.81990757      0.47382792
    H     -0.49036321     -1.92768956     -1.01365898
    H     -2.28450008     -0.32942968     -1.26539396
    H     -0.76414519      0.51399326     -1.37803195
    H     -2.42078607      1.76741017      0.03088095
    H     -1.03069117      1.30420921      1.00172788
    H     -2.52878307      0.39098427      1.12447087
$end
   
$rem
mem_static = 200
mem_total  = 7500
exchange = b3lyp
basis = G3Large
max_scf_cycles = 50
scf_convergence = 7
symmetry = false
xc_grid = 000075000302
$end
