$molecule
0    1
    C     -1.80156175      0.70140613      0.16135328
    C     -1.14539180     -0.53490778     -0.44616267
    C      0.04075711     -1.07099375      0.36669127
    C      1.40627202     -0.56312478     -0.09360670
    C      1.57398000      0.95038311     -0.03493370
    H     -2.62971269      1.05264410     -0.45314167
    H      1.57729200     -0.90364376     -1.11769762
    H      2.17894396     -1.03239175      0.51833326
    H     -1.09622580      1.52167207      0.27308327
    H     -2.19649172      0.47096214      1.15080021
    H      0.05390111     -2.16077967      0.31273827
    H     -0.10403687     -0.81930576      1.42127819
    H     -1.90335974     -1.31416673     -0.53511167
    H     -0.81411182     -0.31876080     -1.46511960
    H      2.58907893      1.23946909     -0.30359768
    H      0.89742005      1.45423607     -0.72313865
    H      1.37324702      1.32730208      0.96823222
$end
   
$rem
mem_static = 200
mem_total  = 7500
exchange = b3lyp
basis = G3Large
max_scf_cycles = 50
scf_convergence = 7
symmetry = false
xc_grid = 000075000302
$end
