$molecule
0    1
    C      0.00000000      2.53299582      0.30165898
    C      0.00000000      1.27182791     -0.55188196
    C      0.00000000      0.00000000      0.28527998
    C      0.00000000     -1.27182791     -0.55188196
    C      0.00000000     -2.53299582      0.30165898
    H      0.00000000      3.43387075     -0.30988998
    H      0.87444294     -1.26924391     -1.20653691
    H     -0.87444294     -1.26924391     -1.20653691
    H      0.87962694      2.56514081      0.94437193
    H     -0.87962694      2.56514081      0.94437193
    H     -0.87513294      0.00000000      0.94180293
    H      0.87513294      0.00000000      0.94180293
    H     -0.87444294      1.26924391     -1.20653691
    H      0.87444294      1.26924391     -1.20653691
    H      0.00000000     -3.43387075     -0.30988998
    H      0.87962694     -2.56514081      0.94437193
    H     -0.87962694     -2.56514081      0.94437193
$end
   
$rem
mem_static = 200
mem_total  = 7500
exchange = b3lyp
basis = G3Large
max_scf_cycles = 50
scf_convergence = 7
symmetry = false
xc_grid = 000075000302
$end
