#p b3lyp/6-311+G(3df.2p) scf=tight

Li

0 2
Li 0.0 0.0 0.0

