#p b3lyp/6-311+G(3df.2p) scf=tight

Li_2.8

0 1
Li 0.0 0.0 0.0
Li 0.0 0.0 2.8

