#p b3lyp/6-311+G(3df.2p) scf=tight

Li_3.2

0 1
Li 0.0 0.0 0.0
Li 0.0 0.0 3.2

