#p b3lyp/6-311+G(3df.2p) scf=tight

Li_10.6

0 1
Li 0.0 0.0 0.0
Li 0.0 0.0 10.6

