$molecule
0    1
    C     -8.35497282     -0.18611228      0.00000000
    C     -7.05264590      0.63752431      0.00000000
    C     -5.79248423     -0.24757080      0.00000000
    C     -4.48246532      0.56018105      0.00000000
    C     -3.22380593     -0.32592131      0.00000000
    C     -1.91370553      0.48193985      0.00000000
    C     -0.65501530     -0.40398981      0.00000000
    C      0.65501530      0.40398981      0.00000000
    C      1.91370553     -0.48193985      0.00000000
    C      3.22380593      0.32592131      0.00000000
    C      4.48246532     -0.56018105      0.00000000
    C      5.79248423      0.24757080      0.00000000
    C      7.05264590     -0.63752431      0.00000000
    C      8.35497282      0.18611228      0.00000000
    H     -9.24371211      0.46213523      0.00000000
    H     -8.40475011     -0.83354359     -0.88915380
    H     -8.40475011     -0.83354359      0.88915380
    H     -7.02929993      1.29635284      0.88349889
    H     -7.02929993      1.29635284     -0.88349889
    H     -5.81309656     -0.90780217      0.88370376
    H     -5.81309656     -0.90780217     -0.88370376
    H     -4.46213116      1.22017589      0.88369002
    H     -4.46213116      1.22017589     -0.88369002
    H     -3.24384171     -0.98594128      0.88364574
    H     -3.24384171     -0.98594128     -0.88364574
    H     -1.89357648      1.14196591      0.88365100
    H     -1.89357648      1.14196591     -0.88365100
    H     -0.67501442     -1.06402102      0.88365231
    H     -0.67501442     -1.06402102     -0.88365231
    H      0.67501442      1.06402102      0.88365231
    H      0.67501442      1.06402102     -0.88365231
    H      1.89357648     -1.14196591      0.88365100
    H      1.89357648     -1.14196591     -0.88365100
    H      3.24384171      0.98594128      0.88364574
    H      3.24384171      0.98594128     -0.88364574
    H      4.46213116     -1.22017589      0.88369002
    H      4.46213116     -1.22017589     -0.88369002
    H      5.81309656      0.90780217      0.88370376
    H      5.81309656      0.90780217     -0.88370376
    H      7.02929993     -1.29635284      0.88349889
    H      7.02929993     -1.29635284     -0.88349889
    H      8.40475011      0.83354359      0.88915380
    H      9.24371211     -0.46213523      0.00000000
    H      8.40475011      0.83354359     -0.88915380
$end
   
$rem
mem_static = 200
mem_total  = 7500
exchange = b3lyp
basis = G3Large
max_scf_cycles = 50
scf_convergence = 7
symmetry = false
xc_grid = 000075000302
$end
