$molecule
0    1
    C     -0.64866380      1.22109302      1.54260953
    C     -1.41161487      0.05329990      1.39458617
    C     -0.74501453     -1.17042650      1.54726235
    C      0.64866380     -1.22109302      1.54260953
    C      1.41161487     -0.05329990      1.39458617
    C      2.79287204     -0.11965381      0.79362491
    C     -2.79287204      0.11965381      0.79362491
    C      2.79287204      0.11965381     -0.79362491
    C     -2.79287204     -0.11965381     -0.79362491
    C      1.41161487      0.05329990     -1.39458617
    C      0.74501453     -1.17042650     -1.54726235
    C     -0.64866380     -1.22109302     -1.54260953
    C     -1.41161487     -0.05329990     -1.39458617
    C     -0.74501453      1.17042650     -1.54726235
    C      0.64866380      1.22109302     -1.54260953
    C      0.74501453      1.17042650      1.54726235
    H     -1.14940398      2.19096290      1.50473763
    H     -1.31521977     -2.10138808      1.51415060
    H      1.14940398     -2.19096290      1.50473763
    H      3.45996741      0.62992322      1.24374317
    H      3.22779672     -1.10941235      0.99231640
    H     -3.22779672      1.10941235      0.99231640
    H     -3.45996741     -0.62992322      1.24374317
    H      3.22779672      1.10941235     -0.99231640
    H      3.45996741     -0.62992322     -1.24374317
    H     -3.45996741      0.62992322     -1.24374317
    H     -3.22779672     -1.10941235     -0.99231640
    H      1.31521977     -2.10138808     -1.51415060
    H     -1.14940398     -2.19096290     -1.50473763
    H     -1.31521977      2.10138808     -1.51415060
    H      1.14940398      2.19096290     -1.50473763
    H      1.31521977      2.10138808      1.51415060
$end
   
$rem
mem_static = 200
mem_total  = 7500
exchange = b3lyp
basis = G3Large
max_scf_cycles = 50
scf_convergence = 7
symmetry = false
xc_grid = 000075000302
$end
