lattice_vector 1.9785 -3.4269 0.0000
lattice_vector 1.9785 3.4269 0.0000
lattice_vector 0.0000 0.0000 6.4618

atom   1.9785 1.1423 0.0000 Mg
atom   1.9785 -1.1423 3.2309 Mg
atom   1.9785 1.1423 2.4232 S
atom   1.9785 -1.1423 5.6541 S
