#p b3lyp 6-311+g(3df,2p) scf=tight nosymm

002

0    2
    H     -0.29951104     -3.09855442      0.09302616
    H      0.75114726     -1.63625330     -0.96219880
    O     -0.25669299      2.44872909      0.30471303
    H     -0.76264318      2.49184946     -0.53019066
    P      0.04154935     -1.71029143      0.28262350
    H     -1.18828582     -1.25628338     -0.30353160
    N      0.60413078      1.38309311      0.10483305
    H      1.11030563      1.37771087      1.01072532
 
 
 
