#p b3lyp 6-311+g(3df,2p) scf=tight nosymm

025

0    2
    H     -0.52831346     -1.36764054     -2.24422171
    H     -0.62831575     -0.39073385      0.63818592
    H      0.12049530      1.65180193      3.32901849
    H      0.12101303      1.11160496      2.80561843
    S      0.26583381     -0.26990560     -2.30050493
    N      0.23565872     -0.89410438      0.36215645
    H     -0.55988107      0.36273240     -3.18568889
    H      0.97350943     -0.20375492      0.59543624
 
 
 
