#p b3lyp 6-311+g(3df,2p) scf=tight nosymm

030

0    2
    N      0.00058707     -0.19842350      1.86423121
   Be     -0.00486820      0.64874405      0.60603016
    H     -0.03974545     -1.21341856      1.88621772
    H     -0.04485311      0.75215363     -0.81961755
    H      0.04116798      0.16365383      2.81263218
    H      0.02223812      1.93058837     -0.02628393
    H      0.03871013     -1.24504623     -3.47726171
    H     -0.01323653     -0.83825158     -2.84594808
 
 
 
