#p b3lyp 6-311+g(3df,2p) scf=tight nosymm

040

0    1
   Be     -0.87564652      1.38211074     -0.22330153
   Li      1.53596668      1.95869374     -0.21199876
    N     -0.94732320     -0.67996053     -0.33268960
    N     -1.90081196      0.09754547     -0.60842740
    H      0.45500369     -0.64790824      1.79946708
   Be      0.56963141     -0.26424750      0.48366187
    H     -1.18245201     -1.69740536     -0.43291359
   Cl      2.34563190     -0.14882831     -0.47379808
 
 
 
