#p b3lyp 6-311+g(3df,2p) scf=tight nosymm

047

0    1
    H      1.92603605      0.01848807     -0.74991819
    H     -0.73339946      0.02084110     -2.42931381
    H     -1.35489956     -0.00271227     -1.99500425
    H     -0.66100436     -1.05581696      1.35973622
    H     -0.68842554      1.03318314      1.38141856
    H      1.15654616      0.01493817      1.05094781
   Li      0.30110007     -0.02057277     -0.67214491
    P      0.05404664     -0.00834848      2.05427856
 
 
 
