#p b3lyp 6-311+g(3df,2p) scf=tight nosymm

048

0    1
    O      0.75742033     -0.00509929      0.75514416
    H     -1.01794403      1.02757323      1.02184393
    H     -0.96093237     -0.60735046      1.74144096
    C     -0.64190948      0.00049169      0.87802097
    H      0.38037843      0.00571878     -2.17341541
    H      0.12623738     -0.00672362     -2.88155587
   Al      2.47079067     -0.00042624      0.68708747
    H     -1.11404092     -0.41418408     -0.02856621
 
 
 
