#p b3lyp 6-311+g(3df,2p) scf=tight nosymm

056

0    1
   Li      0.09239077     -0.18392515     -0.35747526
    H     -0.16465719     -0.71622524      1.84404923
    H     -1.53840268     -1.15039400     -1.30487793
    H     -1.92701966     -0.60809697     -0.94972741
    F      1.71036513     -0.40028199     -0.40307976
    H      0.53946640     -0.72742442      1.55092099
    H      0.95229158      1.66740994     -0.20328211
    H      0.33556564      2.11893783     -0.17652776
 
 
 
