#p b3lyp 6-311+g(3df,2p) scf=tight nosymm

113

0    1
    H      0.96554494     -1.66679771      1.16821379
   Mg     -0.60614259     -1.35302311      0.21807138
    C     -0.17539693      1.69259289     -0.10200157
    O     -0.55443681      2.64506837      0.48579387
    H     -2.07179197     -2.20773375     -0.06012233
   Li      1.77092257     -0.21175129      0.60923588
    H      0.41155898      0.53155919     -1.70105132
    C      0.25974182      0.57008540     -0.61813970
 
 
 
