#p b3lyp 6-311+g(3df,2p) scf=tight nosymm

121

0    1
    H      0.98054524      2.74363267      0.00283217
    H      0.04161950     -2.42737017      0.00073380
    H      1.66678064     -0.60960537     -0.00088073
    C     -0.27286998     -1.37664556      0.00013841
    H     -1.62335581      1.72996431     -0.00268091
   Al     -0.03571383      1.50442891     -0.00012247
    C      0.59977186     -0.35004727     -0.00068446
    H     -1.35677762     -1.21435751      0.00066419
 
 
 
