#p b3lyp 6-311+g(3df,2p) scf=tight nosymm

130

0    1
    H      0.03916916     -1.72101698     -0.86367550
    H     -1.11463195      1.71162687      0.11197771
    H     -1.24146734     -0.41774392     -0.79056470
    S      0.01684718      1.53186260      0.88351131
    C     -0.30610240     -0.80637771     -0.36511161
   Si      0.10939355     -0.79716730      1.55677238
    C      0.78333518      0.14547291     -0.00251759
    H      1.71345662      0.35334353     -0.53039199
 
 
 
