#p b3lyp 6-311+g(3df,2p) scf=tight nosymm

139

0    1
    H     -0.85851531      1.40794634      0.36647653
    H      0.00309363     -1.20306807      1.23214080
    N     -0.00064413      1.67741791     -0.10842440
    H      0.83067277      1.41652526      0.41592330
    C      0.00018022     -0.66815931     -0.89926686
    C     -0.00068144     -1.43552698      0.16611841
    H      0.02776228      1.30898903     -1.06418674
    H     -0.00186802     -2.50412418     -0.10878104
 
 
 
