#p b3lyp 6-311+g(3df,2p) scf=tight nosymm

144

0    1
    H      0.48706152     -1.08305641     -1.36311317
   Al     -1.32809450      0.53041518      0.04869067
   Cl     -0.22241536      2.33107071     -0.24719115
    H     -2.83575352      0.67745184      0.54146364
    H      2.92348788      0.31757408      1.24793708
    P     -0.21394117     -1.50846185     -0.18264963
    H      2.50575189      0.81462270      0.86741614
    H     -1.31609675     -2.07961625     -0.91255358
 
 
 
