#p b3lyp 6-311+g(3df,2p) scf=tight nosymm

150

0    1
    N     -0.27448588     -1.05453972      0.69752934
   Al      0.04371908      0.38480963      1.93920067
    C      0.21774983     -0.35770870     -0.37876524
    H     -1.15496427      1.28768161     -0.21140949
    H     -0.06602294     -2.05088656      0.72853845
    H      0.35172175      1.60393038     -1.25149984
    H      1.06236313     -0.75934245     -0.95800244
    C     -0.18008070      0.94605580     -0.56559144
 
 
 
