#p b3lyp 6-311+g(3df,2p) scf=tight nosymm

152

0    1
    C      0.48504166     -1.20675010     -0.07804900
    H      0.62301481     -2.29971721     -0.13105805
    H      1.39179153     -0.59005898     -0.02144565
    H     -0.11817833      2.51940012      0.74663000
    N     -0.64349472     -0.61505774     -0.07968863
    H     -1.42906517     -1.27839375     -0.14207514
    H     -0.37219004      1.29222183     -0.15099856
    O      0.06308026      2.17835583     -0.14331498
 
 
 
