#p b3lyp 6-311+g(3df,2p) scf=tight nosymm

158

0    1
    C      0.09554935     -0.57551217     -0.79975962
    H     -0.79290140     -0.23839874     -1.36672385
    H      0.98524182     -0.20452343     -1.33927284
    H     -0.72792147      1.73963803      0.60986963
    H      0.11043196     -1.67442314     -0.82760902
   Si      0.09070534     -0.31392548      2.33415409
    C      0.08075774     -0.10129897      0.59822552
    O      0.15813666      1.36844390      0.79111608
 
 
 
