#p b3lyp 6-311+g(3df,2p) scf=tight nosymm

166_h

0    1
    H      0.00000000      0.00000000      0.37585571
    H      0.00000000      0.00000000     -0.37585571
 
 
 
