#p b3lyp 6-311+g(3df,2p) scf=tight nosymm

167_li

0    1
   Li      0.00000000      0.00000000      0.80729861
    H      0.00000000      0.00000000     -0.80729861
 
 
 
