#p b3lyp 6-311+g(3df,2p) scf=tight nosymm

168_be

0    1
   Be      0.00000000      0.00000000      0.00000000
    H      0.00000000      0.00000000     -1.34401942
    H      0.00000000      0.00000000      1.34401942
 
 
 
