#p b3lyp 6-311+g(3df,2p) scf=tight nosymm

169_b

0    1
    B      0.00000000      0.00000000      0.00000000
    H      0.60005824      1.03933136      0.00000000
    H      0.60005824     -1.03933136      0.00000000
    H     -1.20011648      0.00000000      0.00000000
 
 
 
