#p b3lyp 6-311+g(3df,2p) scf=tight nosymm

172_o

0    3
    O      0.00000000      0.00000000      0.61121926
    O      0.00000000      0.00000000     -0.61121926
 
 
 
