#p b3lyp 6-311+g(3df,2p) scf=tight nosymm

174_na

0    1
   Na      0.00000000      0.00000000      0.94862897
    H      0.00000000      0.00000000     -0.94862897
 
 
 
