#p b3lyp 6-311+g(3df,2p) scf=tight nosymm

175_mg

0    1
   Mg      0.00000000      0.00000000      0.00000000
    H      0.00000000      0.00000000     -1.71366614
    H      0.00000000      0.00000000      1.71366614
 
 
 
