#p b3lyp 6-311+g(3df,2p) scf=tight nosymm

176_al

0    1
   Al      0.00000000      0.00000000      0.00000000
    H      0.80046342     -1.38644331      0.00000000
    H      0.80046342      1.38644331      0.00000000
    H     -1.60092684      0.00000000      0.00000000
 
 
 
