#p b3lyp 6-311+g(3df,2p) scf=tight nosymm

178_p

0    1
    P      0.00000000      0.00000000      0.95948834
    P      0.00000000      0.00000000     -0.95948834
 
 
 
