#p b3lyp 6-311+g(3df,2p) scf=tight nosymm

179_s

0    3
    S      0.00000000      0.00000000      0.96936724
    S      0.00000000      0.00000000     -0.96936724
 
 
 
