#p b3lyp 6-311+g(3df,2p) scf=tight nosymm

180_cl

0    1
   Cl      0.00000000      0.00000000      1.02399354
   Cl      0.00000000      0.00000000     -1.02399354
 
 
 
