lattice_vector 1.5345 -2.6578 0.0000
lattice_vector 1.5345 2.6578 0.0000
lattice_vector 0.0000 0.0000 5.0116

atom   1.5345 0.8859 0.0000 Al
atom   1.5345 -0.8859 2.5058 Al
atom   1.5345 0.8859 1.8794 N
atom   1.5345 -0.8859 4.3852 N
