&FORCE_EVAL 
  &DFT 
    MULTIPLICITY 1
    CHARGE 0
    &POISSON 
      PERIODIC NONE
      PSOLVER MT
    &END POISSON
  &END DFT
  &SUBSYS 
    &CELL 
      PERIODIC NONE
      ABC     17.67867000     16.12155400     16.78188800
    &END CELL
    &COORD 
          O      8.91719950      8.65534050      7.00433000
          C      8.91719950      8.65534050      8.44122600
          H      9.82897250      8.65534050      6.69547200
          H      9.37370350      9.59116550      8.79598100
          C      7.45760050      8.62863250      8.86970500
          C      9.71663150      7.47579050      8.99233700
          H      6.97753450      7.70915550      8.52332200
          H      9.28381250      6.53038850      8.65353000
          H      6.91966750      9.47767850      8.44289500
          H     10.75900250      7.51455050      8.65880200
          H      7.37472550      8.67651950      9.95874800
          H      9.72014350      7.48525250     10.08641600
    &END COORD
  &END SUBSYS
&END FORCE_EVAL

&GLOBAL 
  PROJECT G2-129
&END GLOBAL

