&FORCE_EVAL 
  &DFT 
    MULTIPLICITY 1
    CHARGE 0
    &POISSON 
      PERIODIC NONE
      PSOLVER MT
    &END POISSON
  &END DFT
  &SUBSYS 
    &CELL 
      PERIODIC NONE
      ABC     10.00000000     18.25792800     15.61691200
    &END CELL
    &COORD 
          H      5.00000000     11.19344600      9.06323900
          N      5.00000000      9.12896400      6.40422800
          N      5.00000000      9.12896400      9.21268400
          C      5.00000000     10.26148400      7.11106200
          C      5.00000000      7.99644400      7.11106200
          C      5.00000000      7.99644400      8.50585000
          C      5.00000000     10.26148400      8.50585000
          H      5.00000000     11.19344600      6.55367300
          H      5.00000000      7.06448200      6.55367300
          H      5.00000000      7.06448200      9.06323900
    &END COORD
  &END SUBSYS
&END FORCE_EVAL

&GLOBAL 
  PROJECT G2-177
&END GLOBAL

