&FORCE_EVAL 
  &DFT 
    MULTIPLICITY 1
    CHARGE 0
    &POISSON 
      PERIODIC NONE
      PSOLVER MT
    &END POISSON
  &END DFT
  &SUBSYS 
    &CELL 
      PERIODIC NONE
      ABC     17.69727400     19.22775600     13.56970400
    &END CELL
    &COORD 
          O      8.90408150      8.93446200      6.78485200
          C      8.89060750     10.35378500      6.78485200
          C     10.20840850      8.39282700      6.78485200
          C      7.44908750     10.82807800      6.78485200
          H      9.42352250     10.73121800      7.67177100
          H      9.42352250     10.73121800      5.89793300
          H     10.10890350      7.30693900      6.78485200
          H     10.77295550      8.69989700      5.89242600
          H     10.77295550      8.69989700      7.67727800
          H      6.92431850     10.46232200      5.89925400
          H      6.92431850     10.46232200      7.67045000
          H      7.40889250     11.92081700      6.78485200
    &END COORD
  &END SUBSYS
&END FORCE_EVAL

&GLOBAL 
  PROJECT G2-130
&END GLOBAL

