&FORCE_EVAL 
  &DFT 
    MULTIPLICITY 1
    CHARGE 0
    &POISSON 
      PERIODIC NONE
      PSOLVER MT
    &END POISSON
  &END DFT
  &SUBSYS 
    &CELL 
      PERIODIC NONE
      ABC     10.00000000     18.59002400     21.23765600
    &END CELL
    &COORD 
          C      5.00000000      9.29501200     11.66720900
          C      5.00000000      9.29501200      8.89308600
         Cl      5.00000000      9.29501200     13.42824200
          C      5.00000000     10.50873300     10.98665400
          C      5.00000000      8.08129100     10.98665400
          H      5.00000000      9.29501200      7.80941400
          C      5.00000000      8.08938700      9.59265700
          C      5.00000000     10.50063700      9.59265700
          H      5.00000000     11.44021400     11.53827800
          H      5.00000000      7.14981000     11.53827800
          H      5.00000000      7.14750600      9.05596500
          H      5.00000000     11.44251800      9.05596500
    &END COORD
  &END SUBSYS
&END FORCE_EVAL

&GLOBAL 
  PROJECT G2-175
&END GLOBAL

