&FORCE_EVAL 
  &DFT 
    MULTIPLICITY 1
    CHARGE 0
    &POISSON 
      PERIODIC NONE
      PSOLVER MT
    &END POISSON
  &END DFT
  &SUBSYS 
    &CELL 
      PERIODIC NONE
      ABC     13.77982000     18.57212400     15.51237800
    &END CELL
    &COORD 
          O      6.88991000      9.28606200      9.13428350
          C      6.88991000      9.28606200      7.92272550
          C      6.88991000     10.57665200      7.12489750
          C      6.88991000      7.99547200      7.12489750
          H      6.77155000     11.42909300      7.79243050
          H      7.00827000      7.14303100      7.79243050
          H      6.09014400     10.57180100      6.37809450
          H      7.83486500     10.67195600      6.57936350
          H      7.68967600      8.00032300      6.37809450
          H      5.94495500      7.90016800      6.57936350
    &END COORD
  &END SUBSYS
&END FORCE_EVAL

&GLOBAL 
  PROJECT G2-124
&END GLOBAL

