&FORCE_EVAL 
  &DFT 
    MULTIPLICITY 1
    CHARGE 0
    &POISSON 
      PERIODIC NONE
      PSOLVER MT
    &END POISSON
  &END DFT
  &SUBSYS 
    &CELL 
      PERIODIC NONE
      ABC     13.53089600     23.82695600     14.31707200
    &END CELL
    &COORD 
          C      6.76544800     11.91347800      7.57656300
          C      6.76544800     13.19753800      6.73925900
          C      6.76544800     10.62941800      6.73925900
          C      6.76544800     14.47356200      7.58603200
          C      6.76544800      9.35339400      7.58603200
          H      5.88881400     11.91347800      8.23780400
          H      7.64208200     11.91347800      8.23780400
          H      5.88938100     13.19709200      6.07926800
          H      7.64151500     13.19709200      6.07926800
          H      7.64151500     10.62986400      6.07926800
          H      5.88938100     10.62986400      6.07926800
          H      7.64817200     14.51947700      8.23161100
          H      5.88272400     14.51947700      8.23161100
          H      5.88272400      9.30747900      8.23161100
          H      7.64817200      9.30747900      8.23161100
          H      6.76544800     15.37021700      6.96014700
          H      6.76544800      8.45673900      6.96014700
    &END COORD
  &END SUBSYS
&END FORCE_EVAL

&GLOBAL 
  PROJECT G2-152
&END GLOBAL

