&FORCE_EVAL 
  &DFT 
    MULTIPLICITY 1
    CHARGE 0
    &POISSON 
      PERIODIC NONE
      PSOLVER MT
    &END POISSON
  &END DFT
  &SUBSYS 
    &CELL 
      PERIODIC NONE
      ABC     19.18493400     19.53527000     16.55228200
    &END CELL
    &COORD 
          H      7.83759950      9.67895950      7.18375550
          C      7.83837150      9.66355650      8.27524250
          C      9.25669950      9.65705250      8.82331350
          H      9.24933050      9.53651850      9.91421150
          H      7.29623350     10.53500350      8.64831850
          H      7.31952550      8.75956050      8.59890650
          O      9.95747250     10.87684850      8.64502150
          O      9.92842050      8.56621750      8.23101450
          C     10.08639850     11.34060050      7.30398350
          C     11.18140650      8.25661150      8.83026050
          H     10.81451550     12.15145250      7.33144350
          H     11.57161150      7.38381750      8.30697450
          H      9.13914450     11.73215550      6.91638750
          H     10.44989650     10.55181150      6.63807050
          H     11.05742150      8.01343050      9.89376750
          H     11.88870050      9.08631850      8.73739750
    &END COORD
  &END SUBSYS
&END FORCE_EVAL

&GLOBAL 
  PROJECT G2-192
&END GLOBAL

