&FORCE_EVAL 
  &DFT 
    MULTIPLICITY 1
    CHARGE 0
    &POISSON 
      PERIODIC NONE
      PSOLVER MT
    &END POISSON
  &END DFT
  &SUBSYS 
    &CELL 
      PERIODIC NONE
      ABC     17.14415600     14.45900400     13.53830800
    &END CELL
    &COORD 
          C      9.42556600      6.75994700      6.76915400
          C      8.20417300      7.68715200      6.76915400
          N      6.89436300      7.02793100      6.76915400
          H     10.35811700      7.33428100      6.76915400
          H      9.42890000      6.11475100      7.65373100
          H      9.42890000      6.11475100      5.88457700
          H      8.24076500      8.34425300      5.89436200
          H      8.24076500      8.34425300      7.64394600
          H      6.78603900      6.43413100      7.58580400
          H      6.78603900      6.43413100      5.95250400
    &END COORD
  &END SUBSYS
&END FORCE_EVAL

&GLOBAL 
  PROJECT G2-109
&END GLOBAL

