&FORCE_EVAL 
  &DFT 
    MULTIPLICITY 1
    CHARGE 0
    &POISSON 
      PERIODIC NONE
      PSOLVER MT
    &END POISSON
  &END DFT
  &SUBSYS 
    &CELL 
      PERIODIC NONE
      ABC     17.77781000     16.27443800     13.51752000
    &END CELL
    &COORD 
          C      7.46571850      8.02219250      6.73007600
          C      8.90108450      8.51955350      6.72866200
          O      9.17541350      9.70582850      6.73029700
          N      9.86670750      7.55047850      6.72981700
          H     10.83335750      7.83739450      6.73555600
          H      9.65055050      6.56860950      6.72919600
          H      7.37550450      6.93529650      6.68118900
          H      6.97601850      8.38000450      7.63814000
          H      6.94445250      8.46457450      5.87938000
    &END COORD
  &END SUBSYS
&END FORCE_EVAL

&GLOBAL 
  PROJECT G2-105
&END GLOBAL

