&FORCE_EVAL 
  &DFT 
    MULTIPLICITY 2
    CHARGE 0
    &POISSON 
      PERIODIC NONE
      PSOLVER MT
    &END POISSON
  &END DFT
  &SUBSYS 
    &CELL 
      PERIODIC NONE
      ABC     10.00000000     10.00000000     11.95165800
    &END CELL
    &COORD 
          O      5.00000000      5.00000000      6.46374350
          H      5.00000000      5.00000000      5.48791450
    &END COORD
  &END SUBSYS
&END FORCE_EVAL

&GLOBAL 
  PROJECT G2-11
&END GLOBAL

