&FORCE_EVAL 
  &DFT 
    MULTIPLICITY 1
    CHARGE 0
    &POISSON 
      PERIODIC NONE
      PSOLVER MT
    &END POISSON
  &END DFT
  &SUBSYS 
    &CELL 
      PERIODIC NONE
      ABC     18.15469600     14.48573200     13.55017600
    &END CELL
    &COORD 
          C     10.17358700      6.76101600      6.77508800
          C      8.99624800      7.71789300      6.77508800
          O      7.79569700      6.94053600      6.77508800
          H      7.03867400      7.53360800      6.77508800
          H      9.03407500      8.36429900      7.66263200
          H      9.03407500      8.36429900      5.88754400
          H     11.11602200      7.31557800      6.77508800
          H     10.14750700      6.12143300      7.66061500
          H     10.14750700      6.12143300      5.88956100
    &END COORD
  &END SUBSYS
&END FORCE_EVAL

&GLOBAL 
  PROJECT G2-114
&END GLOBAL

