&FORCE_EVAL 
  &DFT 
    MULTIPLICITY 2
    CHARGE 0
    &POISSON 
      PERIODIC NONE
      PSOLVER MT
    &END POISSON
  &END DFT
  &SUBSYS 
    &CELL 
      PERIODIC NONE
      ABC     13.78290200     10.71803000     14.44221800
    &END CELL
    &COORD 
          C      6.93242250      5.53852250      6.63733350
          O      6.93242250      5.53852250      8.00384150
          H      7.83717650      5.53852250      8.33166350
          H      7.80875150      5.17950750      6.11055450
          H      5.94572550      5.47872550      6.20323950
    &END COORD
  &END SUBSYS
&END FORCE_EVAL

&GLOBAL 
  PROJECT G2-141
&END GLOBAL

