&FORCE_EVAL 
  &DFT 
    MULTIPLICITY 1
    CHARGE 0
    &POISSON 
      PERIODIC NONE
      PSOLVER MT
    &END POISSON
  &END DFT
  &SUBSYS 
    &CELL 
      PERIODIC NONE
      ABC     19.88277400     18.63320200     15.70175800
    &END CELL
    &COORD 
          C     10.63594150      9.34545750      7.49712550
          C      9.27691650      9.31456750      8.20008950
          C      8.44196450      8.06604950      7.90523650
          C     11.44117650     10.61149850      7.77521050
          N     11.46430250      8.14136150      7.95529850
          O     11.83350450      7.35135550      7.09912950
          O     11.70619750      8.04771950      9.14934250
          H      7.47069350      8.13147650      8.40096150
          H      8.93291150      7.15830050      8.26556750
          H      8.26319950      7.94830050      6.83258350
          H     12.41208050     10.58256850      7.27582050
          H     11.59954650     10.74082750      8.84708550
          H     10.88987950     11.47490150      7.39585550
          H      8.73803650     10.20942350      7.87086150
          H      9.43959950      9.42021850      9.27631850
          H     10.52438450      9.17926750      6.42543950
    &END COORD
  &END SUBSYS
&END FORCE_EVAL

&GLOBAL 
  PROJECT G2-190
&END GLOBAL

