&FORCE_EVAL 
  &DFT 
    MULTIPLICITY 1
    CHARGE 0
    &POISSON 
      PERIODIC NONE
      PSOLVER MT
    &END POISSON
  &END DFT
  &SUBSYS 
    &CELL 
      PERIODIC NONE
      ABC     15.70866800     18.43106800     16.89225000
    &END CELL
    &COORD 
          H      8.84428300     11.02669800      8.87390250
          S      7.85433400      9.21553400     10.16918750
          C      7.85433400      7.86392300      8.90115950
          C      8.19740000      8.52984300      7.56511750
          C      7.51126800      9.90122500      7.56511750
          C      7.85433400     10.56714500      8.90115950
          H      7.12503300     11.32330100      9.19238850
          H      6.86438500      7.40437000      8.87390250
          H      8.58363500      7.10776700      9.19238850
          H      9.28150100      8.66008800      7.48457750
          H      7.87460000      7.91021400      6.72306250
          H      6.42716700      9.77098000      7.48457750
          H      7.83406800     10.52085400      6.72306250
    &END COORD
  &END SUBSYS
&END FORCE_EVAL

&GLOBAL 
  PROJECT G2-186
&END GLOBAL

