&FORCE_EVAL 
  &DFT 
    MULTIPLICITY 1
    CHARGE 0
    &POISSON 
      PERIODIC NONE
      PSOLVER MT
    &END POISSON
  &END DFT
  &SUBSYS 
    &CELL 
      PERIODIC NONE
      ABC     15.69374200     15.91835200     10.00000000
    &END CELL
    &COORD 
          C      7.21296850      8.11606600      5.00000000
          C      8.50543750      8.40156800      5.00000000
         Cl      6.58772050      6.47958800      5.00000000
          H      6.42343550      8.85513300      5.00000000
          H      9.27030650      7.63537000      5.00000000
          H      8.81956650      9.43876400      5.00000000
    &END COORD
  &END SUBSYS
&END FORCE_EVAL

&GLOBAL 
  PROJECT G2-122
&END GLOBAL

