&FORCE_EVAL 
  &DFT 
    MULTIPLICITY 2
    CHARGE 0
    &POISSON 
      PERIODIC NONE
      PSOLVER MT
    &END POISSON
  &END DFT
  &SUBSYS 
    &CELL 
      PERIODIC NONE
      ABC     14.37148000     13.78581400     10.79961400
    &END CELL
    &COORD 
          C      7.18574000      6.57742250      5.59971050
          F      7.18574000      7.83936050      5.19990350
          F      8.27861000      5.94645350      5.19990350
          F      6.09287000      5.94645350      5.19990350
    &END COORD
  &END SUBSYS
&END FORCE_EVAL

&GLOBAL 
  PROJECT G2-222
&END GLOBAL

