&FORCE_EVAL 
  &DFT 
    MULTIPLICITY 1
    CHARGE 0
    &POISSON 
      PERIODIC NONE
      PSOLVER MT
    &END POISSON
  &END DFT
  &SUBSYS 
    &CELL 
      PERIODIC NONE
      ABC     16.62108200     17.55052600     18.64984400
    &END CELL
    &COORD 
          H      7.71488650      7.03677450     11.40617300
          C      8.24712650      7.45117150     10.54515100
          C      8.24712650      7.45117150      8.10469300
          C      8.89537350      9.57040750      9.32492200
          C      8.24712650      8.98848750      8.05956100
          C      8.24712650      8.98848750     10.59028300
          N      7.65974250      6.88763150      9.32492200
          H      9.28103950      7.08782850      8.03963900
          H      9.96581150      9.32547350      9.32492200
          H      7.21192750      9.34599950      7.98059000
          H      7.21192750      9.34599950     10.66925400
          H      6.65527050      7.04006850      9.32492200
          H      9.28103950      7.08782850     10.61020500
          H      7.71488650      7.03677450      7.24367100
          H      8.82685850     10.66289450      9.32492200
          H      8.77118150      9.33737150      7.16246100
          H      8.77118150      9.33737150     11.48738300
    &END COORD
  &END SUBSYS
&END FORCE_EVAL

&GLOBAL 
  PROJECT G2-203
&END GLOBAL

