&FORCE_EVAL 
  &DFT 
    MULTIPLICITY 1
    CHARGE 0
    &POISSON 
      PERIODIC NONE
      PSOLVER MT
    &END POISSON
  &END DFT
  &SUBSYS 
    &CELL 
      PERIODIC NONE
      ABC     15.51537200     17.88799600     19.16757200
    &END CELL
    &COORD 
          S      6.51541500      6.97199900      9.58378600
          C      8.07945400      9.82165200      9.58378600
          C      7.41188700      7.77909800     10.96852500
          C      7.41188700      7.77909800      8.19904700
          C      7.41188700      9.30584800     10.86753000
          C      7.41188700      9.30584800      8.30004200
          H      8.43540400      7.39182100     10.99770400
          H      6.90582800      7.44336800     11.87567900
          H      8.43540400      7.39182100      8.16986800
          H      6.90582800      7.44336800      7.29189300
          H      6.37884300      9.66650000     10.91580000
          H      7.93498900      9.71550800     11.73984800
          H      6.37884300      9.66650000      8.25177200
          H      7.93498900      9.71550800      7.42772400
          H      8.06822600     10.91599700      9.58378600
          H      9.13652900      9.52439200      9.58378600
    &END COORD
  &END SUBSYS
&END FORCE_EVAL

&GLOBAL 
  PROJECT G2-202
&END GLOBAL

