&FORCE_EVAL 
  &DFT 
    MULTIPLICITY 1
    CHARGE 0
    &POISSON 
      PERIODIC NONE
      PSOLVER MT
    &END POISSON
  &END DFT
  &SUBSYS 
    &CELL 
      PERIODIC NONE
      ABC     17.45259600     20.14532400     18.63392400
    &END CELL
    &COORD 
          H      7.51590000     12.60899300      9.31696200
          H      6.86314900     11.21446800     10.20161500
          H      6.86314900     11.21446800      8.43230900
          H      9.05036700     10.92103600     11.47544300
          H     10.58944700     10.82605800     10.59849500
          H      9.69318200     12.34201700     10.63427800
          O      8.50536400      9.44675900      9.31696200
          C      8.80829500     10.86053400      9.31696200
          C      9.58459600     11.25541700     10.58243100
          C      7.42674300     11.51956400      9.31696200
          C      9.58459600     11.25541700      8.05149300
          H     10.58944700     10.82605800      8.03542900
          H      9.69318200     12.34201700      7.99964600
          H      9.05036700     10.92103600      7.15848100
          C      9.58459600      8.53120000      9.31696200
          H      9.13701900      7.53633100      9.31696200
          H     10.21623800      8.62500800     10.20900000
          H     10.21623800      8.62500800      8.42492400
    &END COORD
  &END SUBSYS
&END FORCE_EVAL

&GLOBAL 
  PROJECT G2-204
&END GLOBAL

