&FORCE_EVAL 
  &DFT 
    MULTIPLICITY 1
    CHARGE 0
    &POISSON 
      PERIODIC NONE
      PSOLVER MT
    &END POISSON
  &END DFT
  &SUBSYS 
    &CELL 
      PERIODIC NONE
      ABC     22.93843400     17.64123200     15.90257400
    &END CELL
    &COORD 
          H     13.75530250      8.17745700      9.23977350
          C     13.78429550      8.10932500      8.14911450
          H     14.70382550      8.55714200      7.77728750
          C     12.59819950      8.83484500      7.56377050
          H     13.74679750      7.04981200      7.88642050
          O     12.66020950      9.81427400      6.85971050
          O     11.44229850      8.24256600      7.93465850
          C     10.18860650      8.83018700      7.46379750
          C      9.75712150      9.93575400      8.41919250
          C      9.19490650      7.68313400      7.37305650
          H     10.38160250      9.25197300      6.47564350
          H     10.50349650     10.73092400      8.45667050
          H      9.60976350      9.53737700      9.42693050
          H      8.81339250     10.37272600      8.08112450
          H      8.23460850      8.05020600      7.00150150
          H      9.03340050      7.22984500      8.35471350
          H      9.55451450      6.91030800      6.69050050
    &END COORD
  &END SUBSYS
&END FORCE_EVAL

&GLOBAL 
  PROJECT G2-201
&END GLOBAL

