&FORCE_EVAL 
  &DFT 
    MULTIPLICITY 1
    CHARGE 0
    &POISSON 
      PERIODIC NONE
      PSOLVER MT
    &END POISSON
  &END DFT
  &SUBSYS 
    &CELL 
      PERIODIC NONE
      ABC     10.00000000     18.58984800     20.39880200
    &END CELL
    &COORD 
          F      5.00000000      9.29492400     12.79910150
          C      5.00000000      9.29492400     11.44256250
          C      5.00000000     10.51075600     10.77640150
          C      5.00000000      8.07909200     10.77640150
          C      5.00000000     10.50168600      9.38213650
          C      5.00000000      8.08816200      9.38213650
          C      5.00000000      9.29492400      8.68318850
          H      5.00000000     11.43393000     11.34253150
          H      5.00000000      7.15591800     11.34253150
          H      5.00000000     11.44238600      8.84364550
          H      5.00000000      7.14746200      8.84364550
          H      5.00000000      9.29492400      7.59970050
    &END COORD
  &END SUBSYS
&END FORCE_EVAL

&GLOBAL 
  PROJECT G2-207
&END GLOBAL

