&FORCE_EVAL 
  &DFT 
    MULTIPLICITY 1
    CHARGE 0
    &POISSON 
      PERIODIC NONE
      PSOLVER MT
    &END POISSON
  &END DFT
  &SUBSYS 
    &CELL 
      PERIODIC NONE
      ABC     15.01168400     14.34024600     10.00000000
    &END CELL
    &COORD 
          S      7.50584200      6.80843550      5.00000000
          O      7.50584200      8.25518450      5.00000000
          O      8.75876300      6.08506150      5.00000000
          O      6.25292100      6.08506150      5.00000000
    &END COORD
  &END SUBSYS
&END FORCE_EVAL

&GLOBAL 
  PROJECT G2-212
&END GLOBAL

