&FORCE_EVAL 
  &DFT 
    MULTIPLICITY 1
    CHARGE 0
    &POISSON 
      PERIODIC NONE
      PSOLVER MT
    &END POISSON
  &END DFT
  &SUBSYS 
    &CELL 
      PERIODIC NONE
      ABC     10.00000000     16.54545200     12.55630000
    &END CELL
    &COORD 
          S      5.00000000      8.27272600      6.91722500
         Cl      5.00000000      9.90908900      5.63907500
         Cl      5.00000000      6.63636300      5.63907500
    &END COORD
  &END SUBSYS
&END FORCE_EVAL

&GLOBAL 
  PROJECT G2-213
&END GLOBAL

