&FORCE_EVAL 
  &DFT 
    MULTIPLICITY 1
    CHARGE 0
    &POISSON 
      PERIODIC NONE
      PSOLVER MT
    &END POISSON
  &END DFT
  &SUBSYS 
    &CELL 
      PERIODIC NONE
      ABC     10.00000000     10.00000000     16.65139600
    &END CELL
    &COORD 
          C      5.00000000      5.00000000      8.92541400
          C      5.00000000      5.00000000      7.72598200
          H      5.00000000      5.00000000      6.66284900
          H      5.00000000      5.00000000      9.98854700
    &END COORD
  &END SUBSYS
&END FORCE_EVAL

&GLOBAL 
  PROJECT G2-24
&END GLOBAL

