&FORCE_EVAL 
  &DFT 
    MULTIPLICITY 2
    CHARGE 0
    &POISSON 
      PERIODIC NONE
      PSOLVER MT
    &END POISSON
  &END DFT
  &SUBSYS 
    &CELL 
      PERIODIC NONE
      ABC     10.00000000     10.00000000     12.29617000
    &END CELL
    &COORD 
          N      5.00000000      5.00000000      5.57404250
          O      5.00000000      5.00000000      6.72212750
    &END COORD
  &END SUBSYS
&END FORCE_EVAL

&GLOBAL 
  PROJECT G2-35
&END GLOBAL

