&FORCE_EVAL 
  &DFT 
    MULTIPLICITY 1
    CHARGE 0
    &POISSON 
      PERIODIC NONE
      PSOLVER MT
    &END POISSON
  &END DFT
  &SUBSYS 
    &CELL 
      PERIODIC NONE
      ABC     10.00000000     10.00000000     12.19110000
    &END CELL
    &COORD 
          N      5.00000000      5.00000000      6.64332500
          N      5.00000000      5.00000000      5.54777500
    &END COORD
  &END SUBSYS
&END FORCE_EVAL

&GLOBAL 
  PROJECT G2-33
&END GLOBAL

