&FORCE_EVAL 
  &DFT 
    MULTIPLICITY 2
    CHARGE 0
    &POISSON 
      PERIODIC NONE
      PSOLVER MT
    &END POISSON
  &END DFT
  &SUBSYS 
    &CELL 
      PERIODIC NONE
      ABC     11.85592600     13.62329200     10.00000000
    &END CELL
    &COORD 
          C      6.39194450      7.08011500      5.00000000
          O      6.39194450      5.90582300      5.00000000
          H      5.46398150      7.71746900      5.00000000
    &END COORD
  &END SUBSYS
&END FORCE_EVAL

&GLOBAL 
  PROJECT G2-30
&END GLOBAL

