&FORCE_EVAL 
  &DFT 
    MULTIPLICITY 1
    CHARGE 0
    &POISSON 
      PERIODIC NONE
      PSOLVER MT
    &END POISSON
  &END DFT
  &SUBSYS 
    &CELL 
      PERIODIC NONE
      ABC     13.90783600     14.29451000     13.57156400
    &END CELL
    &COORD 
          C      7.02117400      7.80740450      6.78578200
          O      7.02117400      6.38429750      6.78578200
          H      5.97695900      8.12085650      6.78578200
          H      7.93087700      6.07362750      6.78578200
          H      7.50640600      8.22088250      7.67867300
          H      7.50640600      8.22088250      5.89289100
    &END COORD
  &END SUBSYS
&END FORCE_EVAL

&GLOBAL 
  PROJECT G2-32
&END GLOBAL

