&FORCE_EVAL 
  &DFT 
    MULTIPLICITY 1
    CHARGE 0
    &POISSON 
      PERIODIC NONE
      PSOLVER MT
    &END POISSON
  &END DFT
  &SUBSYS 
    &CELL 
      PERIODIC NONE
      ABC     13.70626800     14.44299200     12.33061000
    &END CELL
    &COORD 
          N      6.85313400      7.93705800      5.84169950
          N      6.85313400      6.50593400      5.84169950
          H      7.09047300      8.33224400      6.74795750
          H      5.92656700      8.25392400      5.58265250
          H      6.61579500      6.11074800      6.74795750
          H      7.77970100      6.18906800      5.58265250
    &END COORD
  &END SUBSYS
&END FORCE_EVAL

&GLOBAL 
  PROJECT G2-34
&END GLOBAL

