&FORCE_EVAL 
  &DFT 
    MULTIPLICITY 1
    CHARGE 0
    &POISSON 
      PERIODIC NONE
      PSOLVER MT
    &END POISSON
  &END DFT
  &SUBSYS 
    &CELL 
      PERIODIC NONE
      ABC     10.00000000     13.75858400     13.57839800
    &END CELL
    &COORD 
          O      5.00000000      6.87929200      7.68379850
          C      5.00000000      6.87929200      6.48208950
          H      5.00000000      7.81893800      5.89459950
          H      5.00000000      5.93964600      5.89459950
    &END COORD
  &END SUBSYS
&END FORCE_EVAL

&GLOBAL 
  PROJECT G2-31
&END GLOBAL

