&FORCE_EVAL 
  &DFT 
    MULTIPLICITY 1
    CHARGE 0
    &POISSON 
      PERIODIC NONE
      PSOLVER MT
    &END POISSON
  &END DFT
  &SUBSYS 
    &CELL 
      PERIODIC NONE
      ABC     10.00000000     13.45092800     11.40791400
    &END CELL
    &COORD 
          C      5.00000000      6.72546400      6.05593550
          H      5.00000000      7.58819600      5.35197850
          H      5.00000000      5.86273200      5.35197850
    &END COORD
  &END SUBSYS
&END FORCE_EVAL

&GLOBAL 
  PROJECT G2-5
&END GLOBAL

