&FORCE_EVAL 
  &DFT 
    MULTIPLICITY 1
    CHARGE 0
    &POISSON 
      PERIODIC NONE
      PSOLVER MT
    &END POISSON
  &END DFT
  &SUBSYS 
    &CELL 
      PERIODIC NONE
      ABC     14.71920400     14.71920400     14.71920400
    &END CELL
    &COORD 
         Si      7.35960200      7.35960200      7.35960200
         Cl      8.53940300      8.53940300      8.53940300
         Cl      6.17980100      6.17980100      8.53940300
         Cl      8.53940300      6.17980100      6.17980100
         Cl      6.17980100      8.53940300      6.17980100
    &END COORD
  &END SUBSYS
&END FORCE_EVAL

&GLOBAL 
  PROJECT G2-66
&END GLOBAL

