&FORCE_EVAL 
  &DFT 
    MULTIPLICITY 1
    CHARGE 0
    &POISSON 
      PERIODIC NONE
      PSOLVER MT
    &END POISSON
  &END DFT
  &SUBSYS 
    &CELL 
      PERIODIC NONE
      ABC     13.06772400     13.06772400     13.06772400
    &END CELL
    &COORD 
          C      6.53386200      6.53386200      6.53386200
          F      7.30079300      7.30079300      7.30079300
          F      5.76693100      5.76693100      7.30079300
          F      5.76693100      7.30079300      5.76693100
          F      7.30079300      5.76693100      5.76693100
    &END COORD
  &END SUBSYS
&END FORCE_EVAL

&GLOBAL 
  PROJECT G2-60
&END GLOBAL

