&FORCE_EVAL 
  &DFT 
    MULTIPLICITY 1
    CHARGE 0
    &POISSON 
      PERIODIC NONE
      PSOLVER MT
    &END POISSON
  &END DFT
  &SUBSYS 
    &CELL 
      PERIODIC NONE
      ABC     13.70969200     13.70969200     17.47016400
    &END CELL
    &COORD 
          C      6.85484600      6.85484600      8.73508200
          C      6.85484600      6.85484600     10.03848200
          C      6.85484600      6.85484600      7.43168200
          H      6.85484600      7.78226900     10.60262300
          H      6.85484600      5.92742300     10.60262300
          H      7.78226900      6.85484600      6.86754100
          H      5.92742300      6.85484600      6.86754100
    &END COORD
  &END SUBSYS
&END FORCE_EVAL

&GLOBAL 
  PROJECT G2-78
&END GLOBAL

