&FORCE_EVAL 
  &DFT 
    MULTIPLICITY 1
    CHARGE 0
    &POISSON 
      PERIODIC NONE
      PSOLVER MT
    &END POISSON
  &END DFT
  &SUBSYS 
    &CELL 
      PERIODIC NONE
      ABC     10.00000000     14.44006800     11.72960400
    &END CELL
    &COORD 
          F      5.00000000      8.33005100      5.43240100
          O      5.00000000      7.22003400      6.29720300
          F      5.00000000      6.11001700      5.43240100
    &END COORD
  &END SUBSYS
&END FORCE_EVAL

&GLOBAL 
  PROJECT G2-72
&END GLOBAL

