&FORCE_EVAL 
  &DFT 
    MULTIPLICITY 1
    CHARGE 0
    &POISSON 
      PERIODIC NONE
      PSOLVER MT
    &END POISSON
  &END DFT
  &SUBSYS 
    &CELL 
      PERIODIC NONE
      ABC     10.00000000     17.06495600     13.32750200
    &END CELL
    &COORD 
         Cl      5.00000000      8.53247800      7.49562650
          F      5.00000000      8.53247800      5.83187550
          F      5.00000000     10.29871700      7.42054950
          F      5.00000000      6.76623900      7.42054950
    &END COORD
  &END SUBSYS
&END FORCE_EVAL

&GLOBAL 
  PROJECT G2-73
&END GLOBAL

