&FORCE_EVAL 
  &DFT 
    MULTIPLICITY 1
    CHARGE 0
    &POISSON 
      PERIODIC NONE
      PSOLVER MT
    &END POISSON
  &END DFT
  &SUBSYS 
    &CELL 
      PERIODIC NONE
      ABC     13.65268800     16.30376400     15.00526600
    &END CELL
    &COORD 
          C      6.82634400      8.15188200      8.15762350
          C      6.82634400      8.79727600      6.79213550
          C      6.82634400      7.50648800      6.79213550
          H      5.91317200      8.15188200      8.75394950
          H      7.73951600      8.15188200      8.75394950
          H      6.82634400      9.72782300      6.25131650
          H      6.82634400      6.57594100      6.25131650
    &END COORD
  &END SUBSYS
&END FORCE_EVAL

&GLOBAL 
  PROJECT G2-79
&END GLOBAL

