&FORCE_EVAL 
  &DFT 
    MULTIPLICITY 1
    CHARGE 0
    &POISSON 
      PERIODIC NONE
      PSOLVER MT
    &END POISSON
  &END DFT
  &SUBSYS 
    &CELL 
      PERIODIC NONE
      ABC     17.84689600     17.84689600     14.64970800
    &END CELL
    &COORD 
          C      8.92344800     10.00843100      7.44830100
          C      8.92344800      7.83846500      7.44830100
          C      7.83846500      8.92344800      7.20140700
          C     10.00843100      8.92344800      7.20140700
          H      8.92344800     10.88517200      6.79725800
          H      8.92344800     10.34832800      8.48728100
          H      8.92344800      6.96172400      6.79725800
          H      8.92344800      7.49856800      8.48728100
          H      6.96172400      8.92344800      7.85245000
          H      7.49856800      8.92344800      6.16242700
          H     10.88517200      8.92344800      7.85245000
          H     10.34832800      8.92344800      6.16242700
    &END COORD
  &END SUBSYS
&END FORCE_EVAL

&GLOBAL 
  PROJECT G2-88
&END GLOBAL

