&FORCE_EVAL 
  &DFT 
    MULTIPLICITY 1
    CHARGE 0
    &POISSON 
      PERIODIC NONE
      PSOLVER MT
    &END POISSON
  &END DFT
  &SUBSYS 
    &CELL 
      PERIODIC NONE
      ABC     15.71569200     18.33304800     15.10467400
    &END CELL
    &COORD 
          C      7.85784600     10.30394900      7.74183950
          C      7.85784600      8.02909900      7.74183950
          C      8.60388900      9.16652400      7.11068050
          C      7.11180300      9.16652400      7.11068050
          H      7.85784600     10.40420000      8.82850550
          H      7.85784600     11.24978600      7.20673750
          H      7.85784600      7.92884800      8.82850550
          H      7.85784600      7.08326200      7.20673750
          H      9.28676900      9.16652400      6.27616850
          H      6.42892300      9.16652400      6.27616850
    &END COORD
  &END SUBSYS
&END FORCE_EVAL

&GLOBAL 
  PROJECT G2-86
&END GLOBAL

