&FORCE_EVAL 
  &DFT 
    MULTIPLICITY 1
    CHARGE 0
    &POISSON 
      PERIODIC NONE
      PSOLVER MT
    &END POISSON
  &END DFT
  &SUBSYS 
    &CELL 
      PERIODIC NONE
      ABC     18.68100800     17.51797200     15.32044400
    &END CELL
    &COORD 
          C      9.34050400      8.64294500      7.89225000
          H      9.34050400      8.64294500      8.99033300
          C      9.34050400     10.10442200      7.42439400
          H      9.34050400     10.16295800      6.33011100
          H      8.45636700     10.63847900      7.78533100
          H     10.22464100     10.63847900      7.78533100
          C     10.60618100      7.91220600      7.42439400
          H     10.65687400      7.88293800      6.33011100
          H     11.51075600      8.41086300      7.78533100
          H     10.62661800      6.87949300      7.78533100
          C      8.07482700      7.91220600      7.42439400
          H      8.02413400      7.88293800      6.33011100
          H      8.05439000      6.87949300      7.78533100
          H      7.17025200      8.41086300      7.78533100
    &END COORD
  &END SUBSYS
&END FORCE_EVAL

&GLOBAL 
  PROJECT G2-91
&END GLOBAL

