&FORCE_EVAL 
  &DFT 
    MULTIPLICITY 1
    CHARGE 0
    &POISSON 
      PERIODIC NONE
      PSOLVER MT
    &END POISSON
  &END DFT
  &SUBSYS 
    &CELL 
      PERIODIC NONE
      ABC     15.07045600     15.07045600     16.29233200
    &END CELL
    &COORD 
          C      7.53522800      7.53522800      8.14616600
          C      7.53522800      8.30090600      9.41635800
          C      7.53522800      6.76955000      9.41635800
          C      8.30090600      7.53522800      6.87597400
          C      6.76955000      7.53522800      6.87597400
          H      6.62226600      8.80284200      9.71924900
          H      8.44819000      8.80284200      9.71924900
          H      6.62226600      6.26761400      9.71924900
          H      8.44819000      6.26761400      9.71924900
          H      8.80284200      6.62226600      6.57308300
          H      8.80284200      8.44819000      6.57308300
          H      6.26761400      6.62226600      6.57308300
          H      6.26761400      8.44819000      6.57308300
    &END COORD
  &END SUBSYS
&END FORCE_EVAL

&GLOBAL 
  PROJECT G2-92
&END GLOBAL

