$molecule
0    1
    C     -1.95174355      0.21283606      0.00000000
    C     -1.95174355     -0.62563718      1.27595736
    C     -1.95174355     -0.62563718     -1.27595736
    C     -1.95174355      0.22494806      2.54341372
    C     -1.95174355      0.22494806     -2.54341372
    H     -2.83047280      0.87229625      0.00000000
    H     -1.07301430      0.87229625      0.00000000
    H     -2.82975380     -1.28373536      1.27393336
    H     -1.07373330     -1.28373536      1.27393336
    H     -2.82975380     -1.28373536     -1.27393336
    H     -1.07373330     -1.28373536     -1.27393336
    H     -2.83576880      0.86916325      2.57989873
    H     -1.06771830      0.86916325      2.57989873
    H     -1.95174355     -0.39673211      3.44361698
    H     -2.83576880      0.86916325     -2.57989873
    H     -1.06771830      0.86916325     -2.57989873
    H     -1.95174355     -0.39673211     -3.44361698
    C      1.95174355     -0.21283606      0.00000000
    C      1.95174355      0.62563718     -1.27595736
    C      1.95174355      0.62563718      1.27595736
    C      1.95174355     -0.22494806     -2.54341372
    C      1.95174355     -0.22494806      2.54341372
    H      1.07301430     -0.87229625      0.00000000
    H      2.83047280     -0.87229625      0.00000000
    H      1.07373330      1.28373536     -1.27393336
    H      2.82975380      1.28373536     -1.27393336
    H      1.07373330      1.28373536      1.27393336
    H      2.82975380      1.28373536      1.27393336
    H      1.06771830     -0.86916325     -2.57989873
    H      2.83576880     -0.86916325     -2.57989873
    H      1.95174355      0.39673211     -3.44361698
    H      1.06771830     -0.86916325      2.57989873
    H      2.83576880     -0.86916325      2.57989873
    H      1.95174355      0.39673211      3.44361698
$end
   
$rem
mem_static = 200
mem_total  = 7500
exchange = b3lyp
basis = G3Large
max_scf_cycles = 50
scf_convergence = 7
symmetry = false
xc_grid = 000075000302
$end
