$molecule
0    1
    C      0.00000000      0.00000000      0.28905385
    C      0.00000000      1.27595736     -0.54941939
    C      0.00000000     -1.27595736     -0.54941939
    C      0.00000000      2.54341372      0.30116585
    C      0.00000000     -2.54341372      0.30116585
    H      0.87872925      0.00000000      0.94851403
    H     -0.87872925      0.00000000      0.94851403
    H      0.87801025      1.27393336     -1.20751758
    H     -0.87801025      1.27393336     -1.20751758
    H      0.87801025     -1.27393336     -1.20751758
    H     -0.87801025     -1.27393336     -1.20751758
    H      0.88402525      2.57989873      0.94538103
    H     -0.88402525      2.57989873      0.94538103
    H      0.00000000      3.44361698     -0.32051433
    H      0.88402525     -2.57989873      0.94538103
    H     -0.88402525     -2.57989873      0.94538103
    H      0.00000000     -3.44361698     -0.32051433
$end
   
$rem
mem_static = 200
mem_total  = 7500
exchange = b3lyp
basis = G3Large
max_scf_cycles = 50
scf_convergence = 7
symmetry = false
xc_grid = 000075000302
$end
