$molecule
0    1
    C      0.00000000      0.00000000      0.51682943
    C      0.00000000      1.27525836     -0.32328680
    C      0.00000000     -1.27525836     -0.32328680
    C      0.00000000      2.55137972      0.51534943
    C      0.00000000     -2.55137972      0.51534943
    C      0.00000000      3.81878508     -0.33535581
    C      0.00000000     -3.81878508     -0.33535581
    H     -0.87886466      0.00000000      1.17586479
    H      0.87886466      0.00000000      1.17586479
    H     -0.87879063      1.27565336     -0.98252582
    H      0.87879063      1.27565336     -0.98252582
    H     -0.87879063     -1.27565336     -0.98252582
    H      0.87879063     -1.27565336     -0.98252582
    H     -0.87802466      2.54927672      1.17342079
    H      0.87802466      2.54927672      1.17342079
    H     -0.87802466     -2.54927672      1.17342079
    H      0.87802466     -2.54927672      1.17342079
    H     -0.88405063      3.85521609     -0.97954982
    H      0.88405063      3.85521609     -0.97954982
    H      0.00000000      4.71902034      0.28632337
    H     -0.88405063     -3.85521609     -0.97954982
    H      0.88405063     -3.85521609     -0.97954982
    H      0.00000000     -4.71902034      0.28632337
$end
   
$rem
mem_static = 200
mem_total  = 7500
exchange = b3lyp
basis = G3Large
max_scf_cycles = 50
scf_convergence = 7
symmetry = false
xc_grid = 000075000302
$end
