%nproc=8
%chk=G2-148.chk
#p b3lyp/6-311+G(d,p) opt freq

NO2 RADICAL 2A1

0 2
 N                  0.00000000    0.00000000    0.32194500
 O                  0.00000000    1.09994600   -0.14085100
 O                  0.00000000   -1.09994600   -0.14085100 
 
