%nproc=8
%chk=G2-121.chk
#p b3lyp/6-311+G(d,p) opt freq

Ethyl chloride. CH3-CH2-Cl. Cs symm.

0 1
 C                  0.00000000    0.82300200    0.00000000
 C                  1.50946000    0.68360300    0.00000000
 Cl                -0.82374300   -0.80528300    0.00000000
 H                 -0.36533600    1.33652300    0.88750300
 H                 -0.36533600    1.33652300   -0.88750300
 H                  1.96394800    1.67980700    0.00000000
 H                  1.85680000    0.14866400    0.88575800
 H                  1.85680000    0.14866400   -0.88575800 
 
