%nproc=8
%chk=G2-158.chk
#p b3lyp/6-311+G(d,p) opt freq

3-methyl pentane C6H14 Optimized Energy = -237.0832105

0 1
 C                 -0.07880300   -0.18358700    0.00000000
 C                 -0.33138900    0.66204900    1.26410100
 C                 -0.33138900    0.66204900   -1.26410100
 C                 -0.33138900   -0.11948000    2.58250400
 C                 -0.33138900   -0.11948000   -2.58250400
 C                  1.32475600   -0.80736800    0.00000000
 H                 -0.81343900   -1.00287400    0.00000000
 H                 -1.29990100    1.16420800    1.15529300
 H                 -1.29990100    1.16420800   -1.15529300
 H                  0.41988400    1.46138600    1.31286200
 H                  0.41988400    1.46138600   -1.31286200
 H                 -0.58668700    0.53389100    3.42160800
 H                 -0.58668700    0.53389100   -3.42160800
 H                 -1.06712800   -0.93014700    2.55995400
 H                 -1.06712800   -0.93014700   -2.55995400
 H                  0.64384500   -0.56184200    2.80083400
 H                  0.64384500   -0.56184200   -2.80083400
 H                  2.09388900   -0.02613200    0.00000000
 H                  1.48856900   -1.43554000    0.87868900
 H                  1.48856900   -1.43554000   -0.87868900  
  
