%nproc=8
%chk=G2-132.chk
#p b3lyp/6-311+G(d,p) opt freq

FURAN

0 1
 O                  0.00000000    0.00000000    1.15831300
 C                  0.00000000    1.09533900    0.34699800
 C                  0.00000000   -1.09533900    0.34699800
 C                  0.00000000    0.71776300   -0.95772700
 C                  0.00000000   -0.71776300   -0.95772700
 H                  0.00000000    2.04990000    0.84511100
 H                  0.00000000   -2.04990000    0.84511100
 H                  0.00000000    1.37317000   -1.81399300
 H                  0.00000000   -1.37317000   -1.81399300 
 
