%nproc=8
%chk=G2-186.chk
#p b3lyp/6-311+G(d,p) opt freq

Tetrahydrothiophene. C4H8S. C2 symmetry. Optimized Energy = -555.436613.
Local minimum.

0 1
 H                  0.98994900    1.81116400    0.02285700
 S                  0.00000000    0.00000000    1.31814200
 C                  0.00000000   -1.35161100    0.05011400
 C                  0.34306600   -0.68569100   -1.28592800
 C                 -0.34306600    0.68569100   -1.28592800
 C                  0.00000000    1.35161100    0.05011400
 H                 -0.72930100    2.10776700    0.34134300
 H                 -0.98994900   -1.81116400    0.02285700
 H                  0.72930100   -2.10776700    0.34134300
 H                  1.42716700   -0.55544600   -1.36646800
 H                  0.02026600   -1.30532000   -2.12798300
 H                 -1.42716700    0.55544600   -1.36646800
 H                 -0.02026600    1.30532000   -2.12798300  
  
