%nproc=8
%chk=G2-171.chk
#p b3lyp/6-311+G(d,p) opt freq

cyclopentanone C5H8O C2 symmetry Optimized Energy = -270.572856

0 1
 C                  0.00000000    0.00000000    0.92634300
 O                  0.00000000    0.00000000    2.13309000
 C                  0.00000000    1.24176400    0.03132200
 C                  0.00000000   -1.24176400    0.03132200
 C                  0.29667100   -0.71400900   -1.38094700
 C                 -0.29667100    0.71400900   -1.38094700
 H                  1.00503400    1.67852400    0.08903700
 H                 -1.00503400   -1.67852400    0.08903700
 H                 -0.69687100    1.99202700    0.40899600
 H                  0.69687100   -1.99202700    0.40899600
 H                  1.37904500   -0.66433700   -1.54080700
 H                 -1.37904500    0.66433700   -1.54080700
 H                 -0.11912800   -1.34211900   -2.17086600
 H                  0.11912800    1.34211900   -2.17086600  
  
