%nproc=8
%chk=G2-115.chk
#p b3lyp/6-311+G(d,p) opt freq

DIMETHYL ETHER

0 1
 C                  0.00000000    1.17620900   -0.19503700
 O                  0.00000000    0.00000000    0.58695600
 C                  0.00000000   -1.17620900   -0.19503700
 H                  0.00000000    2.02261600    0.49226900
 H                  0.89262100    1.23443300   -0.83493400
 H                 -0.89262100    1.23443300   -0.83493400
 H                  0.00000000   -2.02261600    0.49226900
 H                 -0.89262100   -1.23443300   -0.83493400
 H                  0.89262100   -1.23443300   -0.83493400 
 
