%nproc=8
%chk=G2-118.chk
#p b3lyp/6-311+G(d,p) opt freq

Thioethanol. CH3-CH2-SH. Cs symm.

0 1
 C                  1.52029900    0.70919500    0.00000000
 C                  0.00000000    0.83563400    0.00000000
 S                 -0.75769400   -0.85088000    0.00000000
 H                 -2.04608000   -0.45177000    0.00000000
 H                 -0.33972700    1.37223600    0.88682500
 H                 -0.33972700    1.37223600   -0.88682500
 H                  1.97788000    1.70220100    0.00000000
 H                  1.87448100    0.17510200    0.88510700
 H                  1.87448100    0.17510200   -0.88510700 
 
