%nproc=8
%chk=G2-11.chk
#p b3lyp/6-311+G(d,p) opt freq

OH RADICAL

0 2
 O                  0.00000000    0.00000000    0.10842500
 H                  0.00000000    0.00000000   -0.86740400 