%nproc=8
%chk=G2-136.chk
#p b3lyp/6-311+G(d,p) opt freq

H2

0 1
 H                  0.00000000    0.00000000    0.37219400
 H                  0.00000000    0.00000000   -0.37219400 
 
