%nproc=8
%chk=G2-196.chk
#p b3lyp/6-311+G(d,p) opt freq

Tetramethylsilane. Si(CH3)4. Td symmetry. Optimized Energy = -449.191778.
Local minimum.

0 1
 C                  1.09177900    1.09177900    1.09177900
 Si                 0.00000000    0.00000000    0.00000000
 C                 -1.09177900   -1.09177900    1.09177900
 C                 -1.09177900    1.09177900   -1.09177900
 C                  1.09177900   -1.09177900   -1.09177900
 H                  1.73753600    1.73753600    0.48873400
 H                  1.73753600    0.48873400    1.73753600
 H                  0.48873400    1.73753600    1.73753600
 H                 -1.73753600   -1.73753600    0.48873400
 H                 -1.73753600   -0.48873400    1.73753600
 H                 -0.48873400   -1.73753600    1.73753600
 H                 -1.73753600    0.48873400   -1.73753600
 H                 -0.48873400    1.73753600   -1.73753600
 H                 -1.73753600    1.73753600   -0.48873400
 H                  0.48873400   -1.73753600   -1.73753600
 H                  1.73753600   -1.73753600   -0.48873400
 H                  1.73753600   -0.48873400   -1.73753600  
  
