%nproc=8
%chk=G2-138.chk
#p b3lyp/6-311+G(d,p) opt freq

CCH nonlinear

0 2
 C                 -0.00001700   -0.72973500    0.00000000
 C                 -0.00001700    0.47341300    0.00000000
 H                  0.00020900    1.53793300    0.00000000 
 
