%nproc=8
%chk=G2-155.chk
#p b3lyp/6-311+G(d,p) opt freq

para-cyclohexadiene. C6H8. D2h symmetry. Optimized Energy = -233.418497.
Local minimum.

0 1
 H                 -2.17195100    0.00000000    0.86949400
 C                 -1.49798500    0.00000000    0.00000000
 C                  0.66622500    1.25439900    0.00000000
 C                  0.66622500   -1.25439900    0.00000000
 C                  1.49798500    0.00000000    0.00000000
 C                 -0.66622500   -1.25439900    0.00000000
 C                 -0.66622500    1.25439900    0.00000000
 H                  1.20294500    2.19936400    0.00000000
 H                 -1.20294500    2.19936400    0.00000000
 H                  2.17195100    0.00000000    0.86949400
 H                 -1.20294500   -2.19936400    0.00000000
 H                  1.20294500   -2.19936400    0.00000000
 H                 -2.17195100    0.00000000   -0.86949400
 H                  2.17195100    0.00000000   -0.86949400  
  
