%nproc=8
%chk=G2-20.chk
#p b3lyp/6-311+G(d,p) opt freq

SH2

0 1
 S                  0.00000000    0.00000000    0.10360000
 H                  0.00000000    0.97326800   -0.82880100
 H                  0.00000000   -0.97326800   -0.82880100 
 
