%nproc=8
%chk=G2-202.chk
#p b3lyp/6-311+G(d,p) opt freq

Tetrahydrothiopyran. C5H10S. Cs symmetry. Optimized Energy = -594.752990.
Local minimum.

0 1
 S                 -0.75464800   -1.32043000    0.00000000
 C                  0.80939100    1.52922300    0.00000000
 C                  0.14182400   -0.51333100    1.38473900
 C                  0.14182400   -0.51333100   -1.38473900
 C                  0.14182400    1.01341900    1.28374400
 C                  0.14182400    1.01341900   -1.28374400
 H                  1.16534100   -0.90060800    1.41391800
 H                 -0.36423500   -0.84906100    2.29189300
 H                  1.16534100   -0.90060800   -1.41391800
 H                 -0.36423500   -0.84906100   -2.29189300
 H                 -0.89122000    1.37407100    1.33201400
 H                  0.66492600    1.42307900    2.15606200
 H                 -0.89122000    1.37407100   -1.33201400
 H                  0.66492600    1.42307900   -2.15606200
 H                  0.79816300    2.62356800    0.00000000
 H                  1.86646600    1.23196300    0.00000000  
  
