%nproc=8
%chk=G2-216.chk
#p b3lyp/6-311+G(d,p) opt freq

Cl2O2S C2v symmetry Optimized Energy = -1468.9419902

0 1
 S                  0.00000000    0.00000000    0.52592100
 O                  0.00000000    1.26860300    1.20741900
 O                  0.00000000   -1.26860300    1.20741900
 Cl                 1.60600900    0.00000000   -0.81569000
 Cl                -1.60600900    0.00000000   -0.81569000  
  
