%nproc=8
%chk=G2-28.chk
#p b3lyp/6-311+G(d,p) opt freq

HYDROGEN CYANIDE

0 1
 C                  0.00000000    0.00000000   -0.49834400
 N                  0.00000000    0.00000000    0.65075400
 H                  0.00000000    0.00000000   -1.56521200 
 
