%nproc=8
%chk=G2-39.chk
#p b3lyp/6-311+G(d,p) opt freq

CO2 D*H

0 1
 C                  0.00000000    0.00000000    0.00000000
 O                  0.00000000    0.00000000    1.16075600
 O                  0.00000000    0.00000000   -1.16075600 
 
