%nproc=8
%chk=G2-40.chk
#p b3lyp/6-311+G(d,p) opt freq

Na2

0 1
 Na                 0.00000000    0.00000000    1.52585400
 Na                 0.00000000    0.00000000   -1.52585400 
 
