%nproc=8
%chk=G2-4.chk
#p b3lyp/6-311+G(d,p) opt freq

CH2 3-B1

0 3
 C                  0.00000000    0.00000000    0.10255200
 H                  0.00000000    0.99884300   -0.30765700
 H                  0.00000000   -0.99884300   -0.30765700 
 
