%nproc=8
%chk=G2-57.chk
#p b3lyp/6-311+G(d,p) opt freq

BCl3

0 1
 B                  0.00000000    0.00000000    0.00000000
 Cl                 0.00000000    1.75133600    0.00000000
 Cl                 1.51670100   -0.87566800    0.00000000
 Cl                -1.51670100   -0.87566800    0.00000000 
 
