%nproc=8
%chk=G2-63.chk
#p b3lyp/6-311+G(d,p) opt freq

CS2

0 1
 S                  0.00000000    0.00000000    1.56046800
 C                  0.00000000    0.00000000    0.00000000
 S                  0.00000000    0.00000000   -1.56046800 
 
