%nproc=8
%chk=G2-66.chk
#p b3lyp/6-311+G(d,p) opt freq

SiCl4, td 1a1

0 1
 Si                 0.00000000    0.00000000    0.00000000
 Cl                 1.17980100    1.17980100    1.17980100
 Cl                -1.17980100   -1.17980100    1.17980100
 Cl                 1.17980100   -1.17980100   -1.17980100
 Cl                -1.17980100    1.17980100   -1.17980100 
 
