%nproc=8
%chk=G2-69.chk
#p b3lyp/6-311+G(d,p) opt freq

NF3 c3v

0 1
 N                  0.00000000    0.00000000    0.48300300
 F                  0.00000000    1.24038000   -0.12522300
 F                  1.07420100   -0.62019000   -0.12522300
 F                 -1.07420100   -0.62019000   -0.12522300 
 
