%nproc=8
%chk=G2-70.chk
#p b3lyp/6-311+G(d,p) opt freq

PF3 c3v

0 1
 P                  0.00000000    0.00000000    0.51254800
 F                  0.00000000    1.39336400   -0.28474900
 F                  1.20668900   -0.69668200   -0.28474900
 F                 -1.20668900   -0.69668200   -0.28474900 
 
