%nproc=8
%chk=G2-84.chk
#p b3lyp/6-311+G(d,p) opt freq

Dimethyl acetylene (2-butyne). D3h (eclipsed).

0 1
 C                  0.00000000    0.00000000    2.06084000
 C                  0.00000000    0.00000000    0.60213700
 C                  0.00000000    0.00000000   -0.60213700
 C                  0.00000000    0.00000000   -2.06084000
 H                  0.00000000    1.02018700    2.45609500
 H                 -0.88350800   -0.51009300    2.45609500
 H                  0.88350800   -0.51009300    2.45609500
 H                  0.00000000    1.02018700   -2.45609500
 H                  0.88350800   -0.51009300   -2.45609500
 H                 -0.88350800   -0.51009300   -2.45609500 
 
