%nproc=8
%chk=G2-97.chk
#p b3lyp/6-311+G(d,p) opt freq

CHCl3

0 1
 C                  0.00000000    0.00000000    0.45371400
 H                  0.00000000    0.00000000    1.53588700
 Cl                 0.00000000    1.70368400   -0.08349400
 Cl                 1.47543400   -0.85184200   -0.08349400
 Cl                -1.47543400   -0.85184200   -0.08349400 
 
