%nproc=8
%chk=G2-149.chk
#p b3lyp/6-311+G(d,p) opt freq

C4H6 isomer. CH3-CH=C=CH2. C1 symmetry. Optimized Energy = -155.975820.
Local minimum.

0 1
 H                  0.60664600    1.97923900   -1.47114600
 C                  0.37992600    1.68823300   -0.44023000
 H                  1.32107300    1.52123900    0.08533900
 C                 -0.49009900    0.45557400   -0.41307300
 H                 -0.13280800    2.53417300    0.02924500
 C                 -0.17583400   -0.67252800    0.16290300
 H                 -1.45417800    0.52124200   -0.91583900
 C                  0.14090300   -1.79933000    0.73995100
 H                  0.66825500   -2.58265900    0.20327100
 H                 -0.11317000   -1.99601000    1.77750300




--link1--
%nproc=8
%chk=G2-150.chk
#p b3lyp/6-311+G(d,p) opt freq

C5H8 isoprene H2C=CHC(CH3)=CH2 trans Optimized Energy = -195.3104538

0 1
 C                 -1.58450400   -0.91247800    0.00000200
 C                 -0.51541300   -0.10051400   -0.00000300
 C                  0.83457600   -0.67614300   -0.00000300
 C                  1.98464600    0.00815100    0.00000200
 C                 -0.66411400    1.40008600   -0.00000100
 H                 -1.47370700   -1.99164200    0.00000500
 H                 -2.59647500   -0.52374600    0.00000200
 H                  0.87466900   -1.76322500   -0.00000600
 H                  2.93961600   -0.50382600    0.00000300
 H                  2.01641300    1.09180100    0.00000600
 H                 -0.18781100    1.84333900   -0.88045800
 H                 -1.71598400    1.68935800   -0.00003000
 H                 -0.18786500    1.84332800    0.88049100




--link1--
%nproc=8
%chk=G2-151.chk
#p b3lyp/6-311+G(d,p) opt freq

cyclopentane twist c5h10 C2 symmetry. Optimized Energy = -196.5571199

0 1
 C                  0.00000000    0.00000000    1.30759800
 C                 -0.32518300    0.69577800   -1.03099800
 C                  0.32518300   -0.69577800   -1.03099800
 C                  0.00000000    1.24258700    0.37209700
 C                  0.00000000   -1.24258700    0.37209700
 H                  0.87565200    0.00602800    1.96126900
 H                 -0.87565200   -0.00602800    1.96126900
 H                  0.03508500    1.34339700   -1.83446500
 H                 -0.03508500   -1.34339700   -1.83446500
 H                 -1.40975900    0.59444200   -1.15564800
 H                  1.40975900   -0.59444200   -1.15564800
 H                  0.99284600    1.70329700    0.36190600
 H                 -0.99284600   -1.70329700    0.36190600
 H                 -0.70304400    2.01294700    0.69754700
 H                  0.70304400   -2.01294700    0.69754700




--link1--
%nproc=8
%chk=G2-152.chk
#p b3lyp/6-311+G(d,p) opt freq

n-pentane c5h12 Optimized Energy = -197.7717785

0 1
 C                  0.00000000    0.00000000    0.31460400
 C                  0.00000000    1.28406000   -0.52270000
 C                  0.00000000   -1.28406000   -0.52270000
 C                  0.00000000    2.56008400    0.32407300
 C                  0.00000000   -2.56008400    0.32407300
 H                 -0.87663400    0.00000000    0.97584500
 H                  0.87663400    0.00000000    0.97584500
 H                 -0.87606700    1.28361400   -1.18269100
 H                  0.87606700    1.28361400   -1.18269100
 H                  0.87606700   -1.28361400   -1.18269100
 H                 -0.87606700   -1.28361400   -1.18269100
 H                  0.88272400    2.60599900    0.96965200
 H                 -0.88272400    2.60599900    0.96965200
 H                 -0.88272400   -2.60599900    0.96965200
 H                  0.88272400   -2.60599900    0.96965200
 H                  0.00000000    3.45673900   -0.30181200
 H                  0.00000000   -3.45673900   -0.30181200




--link1--
%nproc=8
%chk=G2-153.chk
#p b3lyp/6-311+G(d,p) opt freq

Neopentane. C(CH3)4. Td symmetry. Optimized Energy = -197.773090. Local
minimum.

0 1
 C                  0.00000000    0.00000000    0.00000000
 C                  0.88884500    0.88884500    0.88884500
 C                 -0.88884500   -0.88884500    0.88884500
 C                 -0.88884500    0.88884500   -0.88884500
 C                  0.88884500   -0.88884500   -0.88884500
 H                  1.53351100    1.53351100    0.28315200
 H                  0.28315200    1.53351100    1.53351100
 H                  1.53351100    0.28315200    1.53351100
 H                 -1.53351100   -1.53351100    0.28315200
 H                 -0.28315200   -1.53351100    1.53351100
 H                 -1.53351100   -0.28315200    1.53351100
 H                 -1.53351100    0.28315200   -1.53351100
 H                 -1.53351100    1.53351100   -0.28315200
 H                 -0.28315200    1.53351100   -1.53351100
 H                  0.28315200   -1.53351100   -1.53351100
 H                  1.53351100   -0.28315200   -1.53351100
 H                  1.53351100   -1.53351100   -0.28315200




--link1--
%nproc=8
%chk=G2-154.chk
#p b3lyp/6-311+G(d,p) opt freq

1,3-cyclohexadiene. C6H8. C2 symmetry. Optimized Energy = -233.418932.
Local minimum.

0 1
 H                 -1.27396600   -0.17881200   -2.03500800
 C                 -0.72610000    0.25250700   -1.19259800
 C                 -0.72610000   -0.10005900    1.25714000
 C                  1.42342600    0.04942200    0.11246200
 C                  0.72610000    0.10005900    1.25714000
 C                  0.72610000   -0.25250700   -1.19259800
 C                 -1.42342600   -0.04942200    0.11246200
 H                 -1.22855900   -0.26893100    2.20396700
 H                  2.50312700    0.16008200    0.11564100
 H                  1.22855900    0.26893100    2.20396700
 H                  0.73799900   -1.34307600   -1.34662800
 H                 -2.50312700   -0.16008200    0.11564100
 H                 -0.73799900    1.34307600   -1.34662800
 H                  1.27396600    0.17881200   -2.03500800




--link1--
%nproc=8
%chk=G2-155.chk
#p b3lyp/6-311+G(d,p) opt freq

para-cyclohexadiene. C6H8. D2h symmetry. Optimized Energy = -233.418497.
Local minimum.

0 1
 H                 -2.17195100    0.00000000    0.86949400
 C                 -1.49798500    0.00000000    0.00000000
 C                  0.66622500    1.25439900    0.00000000
 C                  0.66622500   -1.25439900    0.00000000
 C                  1.49798500    0.00000000    0.00000000
 C                 -0.66622500   -1.25439900    0.00000000
 C                 -0.66622500    1.25439900    0.00000000
 H                  1.20294500    2.19936400    0.00000000
 H                 -1.20294500    2.19936400    0.00000000
 H                  2.17195100    0.00000000    0.86949400
 H                 -1.20294500   -2.19936400    0.00000000
 H                  1.20294500   -2.19936400    0.00000000
 H                 -2.17195100    0.00000000   -0.86949400
 H                  2.17195100    0.00000000   -0.86949400




--link1--
%nproc=8
%chk=G2-156.chk
#p b3lyp/6-311+G(d,p) opt freq

C6H12. Cyclohexane (chair). D3d symmetry. Optimized Energy = -235.8804328

0 1
 C                 -1.27032400    0.73342200    0.22812600
 C                  0.00000000   -1.46684400    0.22812600
 C                  1.27032400    0.73342200    0.22812600
 C                  0.00000000    1.46684400   -0.22812600
 C                 -1.27032400   -0.73342200   -0.22812600
 C                  1.27032400   -0.73342200   -0.22812600
 H                 -1.33187100    0.76895600    1.32387700
 H                 -2.16060800    1.24742700   -0.14904200
 H                  0.00000000   -1.53791200    1.32387700
 H                  0.00000000   -2.49485500   -0.14904200
 H                  1.33187100    0.76895600    1.32387700
 H                  2.16060800    1.24742700   -0.14904200
 H                  0.00000000    1.53791200   -1.32387700
 H                  0.00000000    2.49485500    0.14904200
 H                 -1.33187100   -0.76895600   -1.32387700
 H                 -2.16060800   -1.24742700    0.14904200
 H                  1.33187100   -0.76895600   -1.32387700
 H                  2.16060800   -1.24742700    0.14904200




--link1--
%nproc=8
%chk=G2-157.chk
#p b3lyp/6-311+G(d,p) opt freq

n-hexane c6h14 Optimized Energy = -237.0854942

0 1
 C                 -0.00570500    0.76628500    0.00000000
 C                  0.00570500   -0.76628500    0.00000000
 C                 -1.41363700    1.37300200    0.00000000
 C                  1.41363700   -1.37300200    0.00000000
 C                 -1.41363700    2.90439900    0.00000000
 C                  1.41363700   -2.90439900    0.00000000
 H                  0.54457900    1.13251400    0.87665600
 H                  0.54457900    1.13251400   -0.87665600
 H                 -0.54457900   -1.13251400    0.87665600
 H                 -0.54457900   -1.13251400   -0.87665600
 H                 -1.96336200    1.00776900    0.87601900
 H                 -1.96336200    1.00776900   -0.87601900
 H                  1.96336200   -1.00776900    0.87601900
 H                  1.96336200   -1.00776900   -0.87601900
 H                 -0.90089100    3.29949800   -0.88268200
 H                 -0.90089100    3.29949800    0.88268200
 H                  0.90089100   -3.29949800   -0.88268200
 H                  0.90089100   -3.29949800    0.88268200
 H                 -2.43081200    3.30570300    0.00000000
 H                  2.43081200   -3.30570300    0.00000000




--link1--
%nproc=8
%chk=G2-158.chk
#p b3lyp/6-311+G(d,p) opt freq

3-methyl pentane C6H14 Optimized Energy = -237.0832105

0 1
 C                 -0.07880300   -0.18358700    0.00000000
 C                 -0.33138900    0.66204900    1.26410100
 C                 -0.33138900    0.66204900   -1.26410100
 C                 -0.33138900   -0.11948000    2.58250400
 C                 -0.33138900   -0.11948000   -2.58250400
 C                  1.32475600   -0.80736800    0.00000000
 H                 -0.81343900   -1.00287400    0.00000000
 H                 -1.29990100    1.16420800    1.15529300
 H                 -1.29990100    1.16420800   -1.15529300
 H                  0.41988400    1.46138600    1.31286200
 H                  0.41988400    1.46138600   -1.31286200
 H                 -0.58668700    0.53389100    3.42160800
 H                 -0.58668700    0.53389100   -3.42160800
 H                 -1.06712800   -0.93014700    2.55995400
 H                 -1.06712800   -0.93014700   -2.55995400
 H                  0.64384500   -0.56184200    2.80083400
 H                  0.64384500   -0.56184200   -2.80083400
 H                  2.09388900   -0.02613200    0.00000000
 H                  1.48856900   -1.43554000    0.87868900
 H                  1.48856900   -1.43554000   -0.87868900




--link1--
%nproc=8
%chk=G2-159.chk
#p b3lyp/6-311+G(d,p) opt freq

C6H5-CH3 (Toluene. Cs) Optimized Energy = -271.5666485

0 1
 C                 -0.00425400    0.91314500    0.00000000
 C                 -0.00746100    0.19425600    1.20062000
 C                 -0.00746100    0.19425600   -1.20062000
 C                 -0.00746100   -1.19956900    1.20350300
 C                 -0.00746100   -1.19956900   -1.20350300
 C                 -0.00654600   -1.90274300    0.00000000
 C                  0.02866000    2.42294000    0.00000000
 H                  1.06002500    2.79271300    0.00000000
 H                 -0.46495500    2.83279800   -0.88437800
 H                 -0.46495500    2.83279800    0.88437800
 H                 -0.01205700   -1.73602400    2.14614000
 H                 -0.01205700   -1.73602400   -2.14614000
 H                 -0.00947800   -2.98691800    0.00000000
 H                 -0.01231200    0.73218300    2.14360900
 H                 -0.01231200    0.73218300   -2.14360900




--link1--
%nproc=8
%chk=G2-160.chk
#p b3lyp/6-311+G(d,p) opt freq

n-heptane c7h16 Optimized Energy = -276.3992257

0 1
 C                  0.00000000    0.00000000    0.49513700
 C                  0.00000000    1.28294200   -0.34355100
 C                  0.00000000   -1.28294200   -0.34355100
 C                  0.00000000    2.56689500    0.49404500
 C                  0.00000000   -2.56689500    0.49404500
 C                  0.00000000    3.84256500   -0.35311800
 C                  0.00000000   -3.84256500   -0.35311800
 H                 -0.87673600    0.00000000    1.15574800
 H                  0.87673600    0.00000000    1.15574800
 H                 -0.87668800    1.28383200   -1.00440700
 H                  0.87668800    1.28383200   -1.00440700
 H                  0.87668800   -1.28383200   -1.00440700
 H                 -0.87668800   -1.28383200   -1.00440700
 H                  0.87611700    2.56657800    1.15390400
 H                 -0.87611700    2.56657800    1.15390400
 H                 -0.87611700   -2.56657800    1.15390400
 H                  0.87611700   -2.56657800    1.15390400
 H                 -0.88277300    3.88835300   -0.99863900
 H                  0.88277300    3.88835300   -0.99863900
 H                  0.88277300   -3.88835300   -0.99863900
 H                 -0.88277300   -3.88835300   -0.99863900
 H                  0.00000000    4.73915200    0.27286500
 H                  0.00000000   -4.73915200    0.27286500



--link1--
%nproc=8
%chk=G2-161.chk
#p b3lyp/6-311+G(d,p) opt freq

cyclooctatetraene C8H8 Optimized Energy = -309.5835476

0 1
 C                  0.67232400    1.56433700    0.37512600
 C                 -0.66718300    1.56653700    0.37512600
 C                 -0.67232400   -1.56433700    0.37512600
 C                  0.66718300   -1.56653700    0.37512600
 C                 -1.56434000    0.67232400   -0.37512600
 C                 -1.56654000   -0.66718400   -0.37512600
 C                  1.56434000   -0.67232400   -0.37512600
 C                  1.56654000    0.66718400   -0.37512600
 H                  1.17541500    2.35555700    0.92896700
 H                 -1.16767300    2.35940300    0.92896700
 H                 -1.17541500   -2.35555700    0.92896700
 H                  1.16767300   -2.35940300    0.92896700
 H                 -2.35556000    1.17541600   -0.92896400
 H                 -2.35940700   -1.16767500   -0.92896400
 H                  2.35556000   -1.17541600   -0.92896400
 H                  2.35940700    1.16767500   -0.92896400




--link1--
%nproc=8
%chk=G2-162.chk
#p b3lyp/6-311+G(d,p) opt freq

n-octane Optimized Energy = -315.7129411

0 1
 C                  0.00041500    0.76653900    0.00000000
 C                 -0.00041500   -0.76653900    0.00000000
 C                 -1.40282900    1.38296700    0.00000000
 C                  1.40282900   -1.38296700    0.00000000
 C                 -1.40282900    2.91606300    0.00000000
 C                  1.40282900   -2.91606300    0.00000000
 C                 -2.80874000    3.52289400    0.00000000
 C                  2.80874000   -3.52289400    0.00000000
 H                  0.55382100    1.12759900    0.87663400
 H                  0.55382100    1.12759900   -0.87663400
 H                 -0.55382100   -1.12759900    0.87663400
 H                 -0.55382100   -1.12759900   -0.87663400
 H                 -1.95694900    1.02261500    0.87664100
 H                 -1.95694900    1.02261500   -0.87664100
 H                  1.95694900   -1.02261500    0.87664100
 H                  1.95694900   -1.02261500   -0.87664100
 H                 -0.84969200    3.27617200   -0.87605500
 H                 -0.84969200    3.27617200    0.87605500
 H                  0.84969200   -3.27617200   -0.87605500
 H                  0.84969200   -3.27617200    0.87605500
 H                 -3.37501000    3.20935600    0.88270900
 H                 -3.37501000    3.20935600   -0.88270900
 H                  3.37501000   -3.20935600    0.88270900
 H                  3.37501000   -3.20935600   -0.88270900
 H                 -2.77337500    4.61582800    0.00000000
 H                  2.77337500   -4.61582800    0.00000000




--link1--
%nproc=8
%chk=G2-163.chk
#p b3lyp/6-311+G(d,p) opt freq

Naphthalene. C10H8. Optimized Energy = -385.8927265

0 1
 C                  0.00000000    0.00000000    0.71574800
 C                  0.00000000    0.00000000   -0.71574800
 C                  0.00000000    1.24381300    1.40083400
 C                  0.00000000   -1.24381300    1.40083400
 C                  0.00000000    1.24381300   -1.40083400
 C                  0.00000000   -1.24381300   -1.40083400
 C                  0.00000000   -2.43050400    0.70766600
 C                  0.00000000    2.43050400    0.70766600
 H                  0.00000000    1.24243300    2.48604900
 H                  0.00000000   -1.24243300    2.48604900
 C                  0.00000000   -2.43050400   -0.70766600
 C                  0.00000000    2.43050400   -0.70766600
 H                  0.00000000    1.24243300   -2.48604900
 H                  0.00000000   -1.24243300   -2.48604900
 H                  0.00000000   -3.37323200    1.24328000
 H                  0.00000000    3.37323200    1.24328000
 H                  0.00000000   -3.37323200   -1.24328000
 H                  0.00000000    3.37323200   -1.24328000




--link1--
%nproc=8
%chk=G2-164.chk
#p b3lyp/6-311+G(d,p) opt freq

azulene C10H8 Optimized Energy = -385.8381719

0 1
 C                 -2.17730000    1.60712200    0.00000000
 C                 -0.84660700    2.05259700    0.00000000
 C                 -2.21112900    0.20422000    0.00000000
 C                  0.00000000    0.93118300    0.00000000
 C                 -0.89017500   -0.27466400    0.00000000
 C                  1.38982400    0.95405000    0.00000000
 C                 -0.50199300   -1.60959700    0.00000000
 C                  2.28674200   -0.11601500    0.00000000
 C                  0.78500500   -2.15089400    0.00000000
 C                  2.01179500   -1.48459300    0.00000000
 H                 -3.04811500    2.25004600    0.00000000
 H                 -0.51669300    3.08212300    0.00000000
 H                 -3.09792400   -0.41407100    0.00000000
 H                  1.83812200    1.94534200    0.00000000
 H                 -1.31689400   -2.33045700    0.00000000
 H                  3.33879500    0.15169300    0.00000000
 H                  0.83951200   -3.23509400    0.00000000
 H                  2.88622300   -2.13003400    0.00000000



--link1--
%nproc=8
%chk=G2-165.chk
#p b3lyp/6-311+G(d,p) opt freq

CH3-C(=O)-OCH3. trans C-C-O-C, Z-Methyl Acetate. Optimized Energy =
-268.3884801

0 1
 C                  0.00000000    0.49787900    0.00000000
 O                 -1.17598500    0.76687200    0.00000000
 O                  0.47066200   -0.77024200    0.00000000
 C                  1.13163500    1.49307300    0.00000000
 C                 -0.52183000   -1.81293900    0.00000000
 H                  0.72684600    2.50284000    0.00000000
 H                  1.76025200    1.34284000    0.88056500
 H                  1.76025200    1.34284000   -0.88056500
 H                  0.03722800   -2.74606900    0.00000000
 H                 -1.15040900   -1.74178500    0.88875700
 H                 -1.15040900   -1.74178500   -0.88875700





--link1--
%nproc=8
%chk=G2-166.chk
#p b3lyp/6-311+G(d,p) opt freq

t-butanol. (CH3)3C-OH. Cs symm. Optimized Energy = -233.6709603

0 1
 C                  0.00189900    0.01239100    0.00000000
 O                 -0.48705500    1.37083500    0.00000000
 C                  1.52469800    0.14505200    0.00000000
 C                 -0.48705500   -0.70698800    1.26410200
 C                 -0.48705500   -0.70698800   -1.26410200
 H                 -1.45019500    1.34921400    0.00000000
 H                  2.00067600   -0.83886800    0.00000000
 H                  1.85616100    0.69306700    0.88494900
 H                  1.85616100    0.69306700   -0.88494900
 H                 -0.09695000   -1.72763200    1.31531900
 H                 -1.58065200   -0.76824100    1.27937700
 H                 -0.16304400   -0.16610700    2.15629700
 H                 -0.09695000   -1.72763200   -1.31531900
 H                 -1.58065200   -0.76824100   -1.27937700
 H                 -0.16304400   -0.16610700   -2.15629700




--link1--
%nproc=8
%chk=G2-167.chk
#p b3lyp/6-311+G(d,p) opt freq

C6H5-NH2 (Aniline, Cs)

0 1
 C                  0.00201400    0.93681400    0.00000000
 C                  0.00331300    0.22062200    1.20626000
 C                  0.00331300    0.22062200   -1.20626000
 C                  0.00331300   -1.17065800    1.20091500
 C                  0.00331300   -1.17065800   -1.20091500
 C                  0.00326200   -1.87961800    0.00000000
 N                  0.05989100    2.33410100    0.00000000
 H                 -0.27886500    2.78472100   -0.83729700
 H                 -0.27886500    2.78472100    0.83729700
 H                  0.00307200   -1.70387700    2.14543800
 H                  0.00307200   -1.70387700   -2.14543800
 H                  0.00286500   -2.96295300    0.00000000
 H                  0.00915800    0.75991300    2.14843200
 H                  0.00915800    0.75991300   -2.14843200





--link1--
%nproc=8
%chk=G2-168.chk
#p b3lyp/6-311+G(d,p) opt freq

C6H5-OH (Phenol, Planar Cs)

0 1
 C                  0.00000000    0.93863300    0.00000000
 C                 -1.20391500    0.23194900    0.00000000
 C                 -1.18787100   -1.16215000    0.00000000
 C                  0.02023100   -1.85532300    0.00000000
 C                  1.21831400   -1.13890400    0.00000000
 C                  1.21545300    0.25201500    0.00000000
 O                  0.05137500    2.30734300    0.00000000
 H                 -0.84187700    2.66652100    0.00000000
 H                 -2.14879500    0.76804100    0.00000000
 H                 -2.12708700   -1.70393100    0.00000000
 H                  0.02964200   -2.93865200    0.00000000
 H                  2.16528700   -1.66712300    0.00000000
 H                  2.13854700    0.81907400    0.00000000









--link1--
%nproc=8
%chk=G2-169.chk
#p b3lyp/6-311+G(d,p) opt freq

C4H6O divinyl ether H2C=CH-O-CH=CH2 Optimized Energy = -231.1963671

0 1
 O                  0.00000000    0.00000000    0.32728500
 C                  0.00000000    1.17477900   -0.37294400
 C                  0.00000000   -1.17477900   -0.37294400
 C                  0.00000000    2.35458200    0.23676900
 C                  0.00000000   -2.35458200    0.23676900
 H                  0.00000000    1.06642700   -1.45453400
 H                  0.00000000   -1.06642700   -1.45453400
 H                  0.00000000    3.25985800   -0.35366000
 H                  0.00000000   -3.25985800   -0.35366000
 H                  0.00000000    2.43565300    1.31610900
 H                  0.00000000   -2.43565300    1.31610900




--link1--
%nproc=8
%chk=G2-170.chk
#p b3lyp/6-311+G(d,p) opt freq

tetrahydrofuran C4H8O C2 symmetry Optimized Energy = -232.4494883

0 1
 O                  0.00000000    0.00000000    1.25172900
 C                  0.00000000    1.17658000    0.42920800
 C                  0.00000000   -1.17658000    0.42920800
 C                 -0.30512300    0.70473900   -0.99609200
 C                  0.30512300   -0.70473900   -0.99609200
 H                 -0.74304700    1.87476800    0.82307700
 H                  0.98687400    1.65418900    0.48660500
 H                  0.74304700   -1.87476800    0.82307700
 H                 -0.98687400   -1.65418900    0.48660500
 H                 -1.38593500    0.65097200   -1.15844700
 H                  0.12039400    1.36217900   -1.75685200
 H                  1.38593500   -0.65097200   -1.15844700
 H                 -0.12039400   -1.36217900   -1.75685200




--link1--
%nproc=8
%chk=G2-171.chk
#p b3lyp/6-311+G(d,p) opt freq

cyclopentanone C5H8O C2 symmetry Optimized Energy = -270.572856

0 1
 C                  0.00000000    0.00000000    0.92634300
 O                  0.00000000    0.00000000    2.13309000
 C                  0.00000000    1.24176400    0.03132200
 C                  0.00000000   -1.24176400    0.03132200
 C                  0.29667100   -0.71400900   -1.38094700
 C                 -0.29667100    0.71400900   -1.38094700
 H                  1.00503400    1.67852400    0.08903700
 H                 -1.00503400   -1.67852400    0.08903700
 H                 -0.69687100    1.99202700    0.40899600
 H                  0.69687100   -1.99202700    0.40899600
 H                  1.37904500   -0.66433700   -1.54080700
 H                 -1.37904500    0.66433700   -1.54080700
 H                 -0.11912800   -1.34211900   -2.17086600
 H                  0.11912800    1.34211900   -2.17086600




--link1--
%nproc=8
%chk=G2-172.chk
#p b3lyp/6-311+G(d,p) opt freq

benzoquinone C6H4O2 Optimized Energy = -381.4516851

0 1
 C                  0.00000000    0.00000000    1.44272300
 C                  0.00000000    0.00000000   -1.44272300
 O                  0.00000000    0.00000000    2.66228000
 O                  0.00000000    0.00000000   -2.66228000
 C                  0.00000000    1.26876300    0.66981800
 C                  0.00000000   -1.26876300    0.66981800
 C                  0.00000000   -1.26876300   -0.66981800
 C                  0.00000000    1.26876300   -0.66981800
 H                  0.00000000    2.18126900    1.25590500
 H                  0.00000000   -2.18126900    1.25590500
 H                  0.00000000   -2.18126900   -1.25590500
 H                  0.00000000    2.18126900   -1.25590500




--link1--
%nproc=8
%chk=G2-173.chk
#p b3lyp/6-311+G(d,p) opt freq

pyrimidine C4H4N2 Optimized Energy = -264.3237243

0 1
 C                  0.00000000    0.00000000   -1.30964100
 C                  0.00000000    0.00000000    1.35336700
 N                  0.00000000    1.19501700   -0.71417000
 N                  0.00000000   -1.19501700   -0.71417000
 C                  0.00000000    1.18329800    0.62199300
 C                  0.00000000   -1.18329800    0.62199300
 H                  0.00000000    0.00000000   -2.39553900
 H                  0.00000000    0.00000000    2.43629900
 H                  0.00000000    2.15114800    1.11567000
 H                  0.00000000   -2.15114800    1.11567000




--link1--
%nproc=8
%chk=G2-174.chk
#p b3lyp/6-311+G(d,p) opt freq

dimethyl sulfone (CH3)2SO2 C2H6O2S Optimized Energy = -628.4008203

0 1
 S                  0.00000000    0.00000000    0.19140400
 O                 -1.27310600    0.00000000    0.91910300
 O                  1.27310600    0.00000000    0.91910300
 C                  0.00000000    1.42425600   -0.92350000
 C                  0.00000000   -1.42425600   -0.92350000
 H                  0.00000000    2.30221800   -0.27752100
 H                  0.00000000   -2.30221800   -0.27752100
 H                  0.90272700    1.40420900   -1.53276900
 H                 -0.90272700    1.40420900   -1.53276900
 H                  0.90272700   -1.40420900   -1.53276900
 H                 -0.90272700   -1.40420900   -1.53276900




--link1--
%nproc=8
%chk=G2-175.chk
#p b3lyp/6-311+G(d,p) opt freq

Chlorobenzene C6H5Cl Optimized Energy = -691.8449872

0 1
 C                  0.00000000    0.00000000    0.50183800
 C                  0.00000000    0.00000000   -2.27228500
 Cl                 0.00000000    0.00000000    2.26287100
 C                  0.00000000    1.21372100   -0.17871700
 C                  0.00000000   -1.21372100   -0.17871700
 H                  0.00000000    0.00000000   -3.35595700
 C                  0.00000000   -1.20562500   -1.57271400
 C                  0.00000000    1.20562500   -1.57271400
 H                  0.00000000    2.14520200    0.37290700
 H                  0.00000000   -2.14520200    0.37290700
 H                  0.00000000   -2.14750600   -2.10940600
 H                  0.00000000    2.14750600   -2.10940600




--link1--
%nproc=8
%chk=G2-176.chk
#p b3lyp/6-311+G(d,p) opt freq

N==C-CH2-CH2-C==N. C2h symmetry. Optimized Energy = -264.301387. Local
minimum.

0 1
 C                 -0.42338600    1.83805600    0.00000000
 N                 -1.10770400    2.76543200    0.00000000
 C                  0.42338600    0.64868800    0.00000000
 H                  1.07154900    0.67534300    0.87966400
 H                  1.07154900    0.67534300   -0.87966400
 C                 -0.42338600   -0.64868800    0.00000000
 H                 -1.07154900   -0.67534300    0.87966400
 C                  0.42338600   -1.83805600    0.00000000
 H                 -1.07154900   -0.67534300   -0.87966400
 N                  1.10770400   -2.76543200    0.00000000




--link1--
%nproc=8
%chk=G2-177.chk
#p b3lyp/6-311+G(d,p) opt freq

C4H4N2. 1,4-dipyridine. D2h symmetry. Optimized Energy = -264.317235.
Local minimum.

0 1
 H                  0.00000000    2.06448200    1.25478300
 N                  0.00000000    0.00000000   -1.40422800
 N                  0.00000000    0.00000000    1.40422800
 C                  0.00000000    1.13252000   -0.69739400
 C                  0.00000000   -1.13252000   -0.69739400
 C                  0.00000000   -1.13252000    0.69739400
 C                  0.00000000    1.13252000    0.69739400
 H                  0.00000000    2.06448200   -1.25478300
 H                  0.00000000   -2.06448200   -1.25478300
 H                  0.00000000   -2.06448200    1.25478300




--link1--
%nproc=8
%chk=G2-178.chk
#p b3lyp/6-311+G(d,p) opt freq

CH3-C(=O)-C==CH. Cs symmetry. Optimized Energy = -229.972860. Local
minimum.

0 1
 H                  1.94529600    0.27965600    0.88004900
 C                  1.49021000    0.74388800    0.00000000
 H                  1.68309800    1.81610200    0.00000000
 C                  0.00000000    0.49530800    0.00000000
 H                  1.94529600    0.27965600   -0.88004900
 O                 -0.82458800    1.38464700    0.00000000
 C                 -0.40840300   -0.90482400    0.00000000
 C                 -0.73729200   -2.06290000    0.00000000