%nproc=8
%chk=G2-1.chk
#p b3lyp/6-311+G(d,p) opt freq

LITHIUM HYDRIDE

0 1
 Li                 0.00000000    0.00000000    0.39796500
 H                  0.00000000    0.00000000   -1.19389500




--link1--
%nproc=8
%chk=G2-2.chk
#p b3lyp/6-311+G(d,p) opt freq

BERYLLIUM HYDRIDE

0 2
 Be                 0.00000000    0.00000000    0.26858700
 H                  0.00000000    0.00000000   -1.07434800




--link1--
%nproc=8
%chk=G2-3.chk
#p b3lyp/6-311+G(d,p) opt freq

DOUBLET CH

0 2
 C                  0.00000000    0.00000000    0.16090800
 H                  0.00000000    0.00000000   -0.96544900




--link1--
%nproc=8
%chk=G2-4.chk
#p b3lyp/6-311+G(d,p) opt freq

CH2 3-B1

0 3
 C                  0.00000000    0.00000000    0.10255200
 H                  0.00000000    0.99884300   -0.30765700
 H                  0.00000000   -0.99884300   -0.30765700




--link1--
%nproc=8
%chk=G2-5.chk
#p b3lyp/6-311+G(d,p) opt freq

Singlet methylene, 1A1

0 1
 C                  0.00000000    0.00000000    0.17598900
 H                  0.00000000    0.86273200   -0.52796800
 H                  0.00000000   -0.86273200   -0.52796800




--link1--
%nproc=8
%chk=G2-6.chk
#p b3lyp/6-311+G(d,p) opt freq

Methyl radical, D3h

0 2
 C                  0.00000000    0.00000000    0.00000000
 H                  0.00000000    1.08062300    0.00000000
 H                  0.93584700   -0.54031200    0.00000000
 H                 -0.93584700   -0.54031200    0.00000000




--link1--
%nproc=8
%chk=G2-7.chk
#p b3lyp/6-311+G(d,p) opt freq

CH4

0 1
 C                  0.00000000    0.00000000    0.00000000
 H                  0.62984300    0.62984300    0.62984300
 H                 -0.62984300   -0.62984300    0.62984300
 H                  0.62984300   -0.62984300   -0.62984300
 H                 -0.62984300    0.62984300   -0.62984300




--link1--
%nproc=8
%chk=G2-8.chk
#p b3lyp/6-311+G(d,p) opt freq

NH,TRIPLET

0 3
 N                  0.00000000    0.00000000    0.13041400
 H                  0.00000000    0.00000000   -0.91290000




--link1--
%nproc=8
%chk=G2-9.chk
#p b3lyp/6-311+G(d,p) opt freq

NH2,2-B-1

0 2
 N                  0.00000000    0.00000000    0.14235500
 H                  0.00000000    0.80635200   -0.49824300
 H                  0.00000000   -0.80635200   -0.49824300




--link1--
%nproc=8
%chk=G2-10.chk
#p b3lyp/6-311+G(d,p) opt freq

AMMONIA

0 1
 N                  0.00000000    0.00000000    0.10882700
 H                  0.00000000    0.94745500   -0.25393100
 H                  0.82052000   -0.47372700   -0.25393100
 H                 -0.82052000   -0.47372700   -0.25393100




--link1--
%nproc=8
%chk=G2-11.chk
#p b3lyp/6-311+G(d,p) opt freq

OH RADICAL

0 2
 O                  0.00000000    0.00000000    0.10842500
 H                  0.00000000    0.00000000   -0.86740400




--link1--
%nproc=8
%chk=G2-12.chk
#p b3lyp/6-311+G(d,p) opt freq

Water

0 1
 O                  0.00000000    0.00000000    0.11707700
 H                  0.00000000    0.76352400   -0.46830900
 H                  0.00000000   -0.76352400   -0.46830900




--link1--
%nproc=8
%chk=G2-13.chk
#p b3lyp/6-311+G(d,p) opt freq

HYDROGEN FLUORIDE

0 1
 F                  0.00000000    0.00000000    0.09221000
 H                  0.00000000    0.00000000   -0.82989000




--link1--
%nproc=8
%chk=G2-14.chk
#p b3lyp/6-311+G(d,p) opt freq

SIH2 singlet

0 1
 Si                 0.00000000    0.00000000    0.13323600
 H                  0.00000000    1.09386900   -0.93265400
 H                  0.00000000   -1.09386900   -0.93265400




--link1--
%nproc=8
%chk=G2-15.chk
#p b3lyp/6-311+G(d,p) opt freq

SIH2 3B1

0 3
 Si                 0.00000000    0.00000000    0.09483000
 H                  0.00000000    1.27945800   -0.66381200
 H                  0.00000000   -1.27945800   -0.66381200




--link1--
%nproc=8
%chk=G2-16.chk
#p b3lyp/6-311+G(d,p) opt freq

SIH3 c3v

0 2
 Si                 0.00000000    0.00000000    0.07984200
 H                  0.00000000    1.41533000   -0.37259400
 H                  1.22571100   -0.70766500   -0.37259400
 H                 -1.22571100   -0.70766500   -0.37259400




--link1--
%nproc=8
%chk=G2-17.chk
#p b3lyp/6-311+G(d,p) opt freq

SIH4

0 1
 Si                 0.00000000    0.00000000    0.00000000
 H                  0.85652500    0.85652500    0.85652500
 H                 -0.85652500   -0.85652500    0.85652500
 H                 -0.85652500    0.85652500   -0.85652500
 H                  0.85652500   -0.85652500   -0.85652500




--link1--
%nproc=8
%chk=G2-18.chk
#p b3lyp/6-311+G(d,p) opt freq

PH2 doublet

0 2
 P                  0.00000000    0.00000000    0.11704700
 H                  0.00000000    1.02415700   -0.87785400
 H                  0.00000000   -1.02415700   -0.87785400




--link1--
%nproc=8
%chk=G2-19.chk
#p b3lyp/6-311+G(d,p) opt freq

PH3 c3v

0 1
 P                  0.00000000    0.00000000    0.12832200
 H                  0.00000000    1.19691500   -0.64160900
 H                  1.03655900   -0.59845700   -0.64160900
 H                 -1.03655900   -0.59845700   -0.64160900




--link1--
%nproc=8
%chk=G2-20.chk
#p b3lyp/6-311+G(d,p) opt freq

SH2

0 1
 S                  0.00000000    0.00000000    0.10360000
 H                  0.00000000    0.97326800   -0.82880100
 H                  0.00000000   -0.97326800   -0.82880100




--link1--
%nproc=8
%chk=G2-21.chk
#p b3lyp/6-311+G(d,p) opt freq

HCl

0 1
 Cl                 0.00000000    0.00000000    0.07149500
 H                  0.00000000    0.00000000   -1.21541300




--link1--
%nproc=8
%chk=G2-22.chk
#p b3lyp/6-311+G(d,p) opt freq

DILITHIUM

0 1
 Li                 0.00000000    0.00000000    1.35237600
 Li                 0.00000000    0.00000000   -1.35237600




--link1--
%nproc=8
%chk=G2-23.chk
#p b3lyp/6-311+G(d,p) opt freq

Lithium Fluoride

0 1
 Li                 0.00000000    0.00000000   -1.18709400
 F                  0.00000000    0.00000000    0.39569800




--link1--
%nproc=8
%chk=G2-24.chk
#p b3lyp/6-311+G(d,p) opt freq

ACETYLENE

0 1
 C                  0.00000000    0.00000000    0.59971600
 C                  0.00000000    0.00000000   -0.59971600
 H                  0.00000000    0.00000000   -1.66284900
 H                  0.00000000    0.00000000    1.66284900




--link1--
%nproc=8
%chk=G2-25.chk
#p b3lyp/6-311+G(d,p) opt freq

ETHYLENE

0 1
 C                  0.00000000    0.00000000    0.66446000
 C                  0.00000000    0.00000000   -0.66446000
 H                  0.00000000    0.92260600    1.23551600
 H                  0.00000000   -0.92260600    1.23551600
 H                  0.00000000    0.92260600   -1.23551600
 H                  0.00000000   -0.92260600   -1.23551600




--link1--
%nproc=8
%chk=G2-26.chk
#p b3lyp/6-311+G(d,p) opt freq

ETHANE

0 1
 C                  0.00000000    0.00000000    0.76532100
 C                  0.00000000    0.00000000   -0.76532100
 H                  0.00000000    1.01855900    1.16372000
 H                 -0.88209800   -0.50928000    1.16372000
 H                  0.88209800   -0.50928000    1.16372000
 H                  0.00000000   -1.01855900   -1.16372000
 H                 -0.88209800    0.50928000   -1.16372000
 H                  0.88209800    0.50928000   -1.16372000




--link1--
%nproc=8
%chk=G2-27.chk
#p b3lyp/6-311+G(d,p) opt freq

CYANO RADICAL, 2-SIGMA-PLUS

0 2
 C                  0.00000000    0.00000000   -0.62780700
 N                  0.00000000    0.00000000    0.53812000




--link1--
%nproc=8
%chk=G2-28.chk
#p b3lyp/6-311+G(d,p) opt freq

HYDROGEN CYANIDE

0 1
 C                  0.00000000    0.00000000   -0.49834400
 N                  0.00000000    0.00000000    0.65075400
 H                  0.00000000    0.00000000   -1.56521200




--link1--
%nproc=8
%chk=G2-29.chk
#p b3lyp/6-311+G(d,p) opt freq

CARBON MONOXIDE

0 1
 O                  0.00000000    0.00000000    0.48324200
 C                  0.00000000    0.00000000   -0.64432200




--link1--
%nproc=8
%chk=G2-30.chk
#p b3lyp/6-311+G(d,p) opt freq

HCO BENT CS

0 2
 C                  0.06186400    0.58379900    0.00000000
 O                  0.06186400   -0.59049300    0.00000000
 H                 -0.86609900    1.22115300    0.00000000




--link1--
%nproc=8
%chk=G2-31.chk
#p b3lyp/6-311+G(d,p) opt freq

H2CO

0 1
 O                  0.00000000    0.00000000    0.67429100
 C                  0.00000000    0.00000000   -0.52741800
 H                  0.00000000    0.93964600   -1.11490800
 H                  0.00000000   -0.93964600   -1.11490800




--link1--
%nproc=8
%chk=G2-32.chk
#p b3lyp/6-311+G(d,p) opt freq

METHANOL

0 1
 C                 -0.04644200    0.66545700    0.00000000
 O                 -0.04644200   -0.75765000    0.00000000
 H                 -1.09065700    0.97890900    0.00000000
 H                  0.86326100   -1.06832000    0.00000000
 H                  0.43879000    1.07893500    0.89289100
 H                  0.43879000    1.07893500   -0.89289100




--link1--
%nproc=8
%chk=G2-33.chk
#p b3lyp/6-311+G(d,p) opt freq

Nitrogen N2

0 1
 N                  0.00000000    0.00000000    0.54777500
 N                  0.00000000    0.00000000   -0.54777500




--link1--
%nproc=8
%chk=G2-34.chk
#p b3lyp/6-311+G(d,p) opt freq

H2NNH2

0 1
 N                  0.00000000    0.71556200   -0.07191200
 N                  0.00000000   -0.71556200   -0.07191200
 H                  0.23733900    1.11074800    0.83434600
 H                 -0.92656700    1.03242800   -0.33095900
 H                 -0.23733900   -1.11074800    0.83434600
 H                  0.92656700   -1.03242800   -0.33095900




--link1--
%nproc=8
%chk=G2-35.chk
#p b3lyp/6-311+G(d,p) opt freq

NO radical, 2pi

0 2
 N                  0.00000000    0.00000000   -0.61231200
 O                  0.00000000    0.00000000    0.53577300




--link1--
%nproc=8
%chk=G2-36.chk
#p b3lyp/6-311+G(d,p) opt freq

O2

0 3
 O                  0.00000000    0.00000000    0.60281300
 O                  0.00000000    0.00000000   -0.60281300




--link1--
%nproc=8
%chk=G2-37.chk
#p b3lyp/6-311+G(d,p) opt freq

HYDROGEN PEROXIDE

0 1
 O                  0.00000000    0.72710200   -0.05203800
 O                  0.00000000   -0.72710200   -0.05203800
 H                  0.82788200    0.90284000    0.41630600
 H                 -0.82788200   -0.90284000    0.41630600




--link1--
%nproc=8
%chk=G2-38.chk
#p b3lyp/6-311+G(d,p) opt freq

F2

0 1
 F                  0.00000000    0.00000000    0.70424300
 F                  0.00000000    0.00000000   -0.70424300




--link1--
%nproc=8
%chk=G2-39.chk
#p b3lyp/6-311+G(d,p) opt freq

CO2 D*H

0 1
 C                  0.00000000    0.00000000    0.00000000
 O                  0.00000000    0.00000000    1.16075600
 O                  0.00000000    0.00000000   -1.16075600




--link1--
%nproc=8
%chk=G2-40.chk
#p b3lyp/6-311+G(d,p) opt freq

Na2

0 1
 Na                 0.00000000    0.00000000    1.52585400
 Na                 0.00000000    0.00000000   -1.52585400




--link1--
%nproc=8
%chk=G2-41.chk
#p b3lyp/6-311+G(d,p) opt freq

SI2 3-SGG alter beta 13 14

0 3
 Si                 0.00000000    0.00000000    1.14030900
 Si                 0.00000000    0.00000000   -1.14030900




--link1--
%nproc=8
%chk=G2-42.chk
#p b3lyp/6-311+G(d,p) opt freq

P2

0 1
 P                  0.00000000    0.00000000    0.94865800
 P                  0.00000000    0.00000000   -0.94865800




--link1--
%nproc=8
%chk=G2-43.chk
#p b3lyp/6-311+G(d,p) opt freq

S2

0 3
 S                  0.00000000    0.00000000    0.96346800
 S                  0.00000000    0.00000000   -0.96346800




--link1--
%nproc=8
%chk=G2-44.chk
#p b3lyp/6-311+G(d,p) opt freq

Cl2

0 1
 Cl                 0.00000000    0.00000000    1.02667200
 Cl                 0.00000000    0.00000000   -1.02667200




--link1--
%nproc=8
%chk=G2-45.chk
#p b3lyp/6-311+G(d,p) opt freq

Sodium Chloride NaCl

0 1
 Na                 0.00000000    0.00000000   -1.44668600
 Cl                 0.00000000    0.00000000    0.93609100




--link1--
%nproc=8
%chk=G2-46.chk
#p b3lyp/6-311+G(d,p) opt freq

SIO

0 1
 Si                 0.00000000    0.00000000    0.55374700
 O                  0.00000000    0.00000000   -0.96905800




--link1--
%nproc=8
%chk=G2-47.chk
#p b3lyp/6-311+G(d,p) opt freq

Carbon monosulfide, CS

0 1
 C                  0.00000000    0.00000000   -1.11939900
 S                  0.00000000    0.00000000    0.41977500




--link1--
%nproc=8
%chk=G2-48.chk
#p b3lyp/6-311+G(d,p) opt freq

OS

0 3
 O                  0.00000000    0.00000000   -1.00682000
 S                  0.00000000    0.00000000    0.50341000




--link1--
%nproc=8
%chk=G2-49.chk
#p b3lyp/6-311+G(d,p) opt freq

ClO 2-PI

0 2
 Cl                 0.00000000    0.00000000    0.51732400
 O                  0.00000000    0.00000000   -1.09931300




--link1--
%nproc=8
%chk=G2-50.chk
#p b3lyp/6-311+G(d,p) opt freq

ClF 1-SG

0 1
 F                  0.00000000    0.00000000   -1.09769400
 Cl                 0.00000000    0.00000000    0.58113200




--link1--
%nproc=8
%chk=G2-51.chk
#p b3lyp/6-311+G(d,p) opt freq

Si2H6

0 1
 Si                 0.00000000    0.00000000    1.17715600
 Si                 0.00000000    0.00000000   -1.17715600
 H                  0.00000000    1.39398700    1.69479800
 H                 -1.20722900   -0.69699400    1.69479800
 H                  1.20722900   -0.69699400    1.69479800
 H                  0.00000000   -1.39398700   -1.69479800
 H                 -1.20722900    0.69699400   -1.69479800
 H                  1.20722900    0.69699400   -1.69479800




--link1--
%nproc=8
%chk=G2-52.chk
#p b3lyp/6-311+G(d,p) opt freq

Methyl chloride, CH3Cl C3v

0 1
 C                  0.00000000    0.00000000   -1.14173800
 Cl                 0.00000000    0.00000000    0.66453900
 H                  0.00000000    1.03231300   -1.48224400
 H                  0.89401000   -0.51615700   -1.48224400
 H                 -0.89401000   -0.51615700   -1.48224400




--link1--
%nproc=8
%chk=G2-53.chk
#p b3lyp/6-311+G(d,p) opt freq

H3C-SH METHANETHIOL STAGGERED

0 1
 C                 -0.04806100    1.16408300    0.00000000
 S                 -0.04806100   -0.67101800    0.00000000
 H                  1.29050800   -0.83610100    0.00000000
 H                 -1.09502000    1.46625700    0.00000000
 H                  0.43093300    1.56081800    0.89426800
 H                  0.43093300    1.56081800   -0.89426800




--link1--
%nproc=8
%chk=G2-54.chk
#p b3lyp/6-311+G(d,p) opt freq

HOCl

0 1
 O                  0.03627500    1.12400000    0.00000000
 H                 -0.90687900    1.34396800    0.00000000
 Cl                 0.03627500   -0.60799800    0.00000000




--link1--
%nproc=8
%chk=G2-55.chk
#p b3lyp/6-311+G(d,p) opt freq

SO2

0 1
 S                  0.00000000    0.00000000    0.37165000
 O                  0.00000000    1.25459000   -0.37165000
 O                  0.00000000   -1.25459000   -0.37165000




--link1--
%nproc=8
%chk=G2-56.chk
#p b3lyp/6-311+G(d,p) opt freq

BF3 PLANAR

0 1
 B                  0.00000000    0.00000000    0.00000000
 F                  0.00000000    1.31744900    0.00000000
 F                  1.14094400   -0.65872400    0.00000000
 F                 -1.14094400   -0.65872400    0.00000000




--link1--
%nproc=8
%chk=G2-57.chk
#p b3lyp/6-311+G(d,p) opt freq

BCl3

0 1
 B                  0.00000000    0.00000000    0.00000000
 Cl                 0.00000000    1.75133600    0.00000000
 Cl                 1.51670100   -0.87566800    0.00000000
 Cl                -1.51670100   -0.87566800    0.00000000




--link1--
%nproc=8
%chk=G2-58.chk
#p b3lyp/6-311+G(d,p) opt freq

AlF3

0 1
 Al                 0.00000000    0.00000000    0.00000000
 F                  0.00000000    1.65669900    0.00000000
 F                  1.43474400   -0.82835000    0.00000000
 F                 -1.43474400   -0.82835000    0.00000000




--link1--
%nproc=8
%chk=G2-59.chk
#p b3lyp/6-311+G(d,p) opt freq

AlCl3

0 1
 Al                 0.00000000    0.00000000    0.00000000
 Cl                 0.00000000    2.08356900    0.00000000
 Cl                 1.80442400   -1.04178500    0.00000000
 Cl                -1.80442400   -1.04178500    0.00000000




--link1--
%nproc=8
%chk=G2-60.chk
#p b3lyp/6-311+G(d,p) opt freq

CF4

0 1
 C                  0.00000000    0.00000000    0.00000000
 F                  0.76693100    0.76693100    0.76693100
 F                 -0.76693100   -0.76693100    0.76693100
 F                 -0.76693100    0.76693100   -0.76693100
 F                  0.76693100   -0.76693100   -0.76693100




--link1--
%nproc=8
%chk=G2-61.chk
#p b3lyp/6-311+G(d,p) opt freq

CCl4

0 1
 C                  0.00000000    0.00000000    0.00000000
 Cl                 1.03443700    1.03443700    1.03443700
 Cl                -1.03443700   -1.03443700    1.03443700
 Cl                -1.03443700    1.03443700   -1.03443700
 Cl                 1.03443700   -1.03443700   -1.03443700




--link1--
%nproc=8
%chk=G2-62.chk
#p b3lyp/6-311+G(d,p) opt freq

O=C=S. Singlet Sigma(+)

0 1
 O                  0.00000000    0.00000000   -1.68505900
 C                  0.00000000    0.00000000   -0.52789200
 S                  0.00000000    0.00000000    1.04048900




--link1--
%nproc=8
%chk=G2-63.chk
#p b3lyp/6-311+G(d,p) opt freq

CS2

0 1
 S                  0.00000000    0.00000000    1.56046800
 C                  0.00000000    0.00000000    0.00000000
 S                  0.00000000    0.00000000   -1.56046800




--link1--
%nproc=8
%chk=G2-64.chk
#p b3lyp/6-311+G(d,p) opt freq

COF2

0 1
 O                  0.00000000    0.00000000    1.31718600
 C                  0.00000000    0.00000000    0.14624300
 F                  0.00000000    1.06672900   -0.63416400
 F                  0.00000000   -1.06672900   -0.63416400




--link1--
%nproc=8
%chk=G2-65.chk
#p b3lyp/6-311+G(d,p) opt freq

SiF4

0 1
 Si                 0.00000000    0.00000000    0.00000000
 F                  0.91470400    0.91470400    0.91470400
 F                 -0.91470400   -0.91470400    0.91470400
 F                 -0.91470400    0.91470400   -0.91470400
 F                  0.91470400   -0.91470400   -0.91470400




--link1--
%nproc=8
%chk=G2-66.chk
#p b3lyp/6-311+G(d,p) opt freq

SiCl4, td 1a1

0 1
 Si                 0.00000000    0.00000000    0.00000000
 Cl                 1.17980100    1.17980100    1.17980100
 Cl                -1.17980100   -1.17980100    1.17980100
 Cl                 1.17980100   -1.17980100   -1.17980100
 Cl                -1.17980100    1.17980100   -1.17980100




--link1--
%nproc=8
%chk=G2-67.chk
#p b3lyp/6-311+G(d,p) opt freq

N2O

0 1
 N                  0.00000000    0.00000000   -1.19837800
 N                  0.00000000    0.00000000   -0.07292000
 O                  0.00000000    0.00000000    1.11238600




--link1--
%nproc=8
%chk=G2-68.chk
#p b3lyp/6-311+G(d,p) opt freq

ClNO

0 1
 Cl                -0.52438600   -0.96034800    0.00000000
 N                  0.00000000    0.99074600    0.00000000
 O                  1.11432100    1.17383700    0.00000000




--link1--
%nproc=8
%chk=G2-69.chk
#p b3lyp/6-311+G(d,p) opt freq

NF3 c3v

0 1
 N                  0.00000000    0.00000000    0.48300300
 F                  0.00000000    1.24038000   -0.12522300
 F                  1.07420100   -0.62019000   -0.12522300
 F                 -1.07420100   -0.62019000   -0.12522300




--link1--
%nproc=8
%chk=G2-70.chk
#p b3lyp/6-311+G(d,p) opt freq

PF3 c3v

0 1
 P                  0.00000000    0.00000000    0.51254800
 F                  0.00000000    1.39336400   -0.28474900
 F                  1.20668900   -0.69668200   -0.28474900
 F                 -1.20668900   -0.69668200   -0.28474900




--link1--
%nproc=8
%chk=G2-71.chk
#p b3lyp/6-311+G(d,p) opt freq

ozone 1-a1

0 1
 O                  0.00000000    1.07934500   -0.21423600
 O                  0.00000000    0.00000000    0.42847200
 O                  0.00000000   -1.07934500   -0.21423600




--link1--
%nproc=8
%chk=G2-72.chk
#p b3lyp/6-311+G(d,p) opt freq

F2O

0 1
 F                  0.00000000    1.11001700   -0.26609300
 O                  0.00000000    0.00000000    0.59870900
 F                  0.00000000   -1.11001700   -0.26609300




--link1--
%nproc=8
%chk=G2-73.chk
#p b3lyp/6-311+G(d,p) opt freq

ClF3, C2V Optimized Energy = -758.2017685

0 1
 Cl                 0.00000000    0.00000000    0.37102600
 F                  0.00000000    0.00000000   -1.29272500
 F                  0.00000000    1.76623900    0.29594900
 F                  0.00000000   -1.76623900    0.29594900




--link1--
%nproc=8
%chk=G2-74.chk
#p b3lyp/6-311+G(d,p) opt freq

CF2=CF2 D2H SINGLET

0 1
 C                  0.00000000    0.00000000    0.66125000
 C                  0.00000000    0.00000000   -0.66125000
 F                  0.00000000    1.10240200    1.38884500
 F                  0.00000000   -1.10240200    1.38884500
 F                  0.00000000    1.10240200   -1.38884500
 F                  0.00000000   -1.10240200   -1.38884500




--link1--
%nproc=8
%chk=G2-75.chk
#p b3lyp/6-311+G(d,p) opt freq

Cl2C=CCl2

0 1
 C                  0.00000000    0.00000000    0.67105100
 C                  0.00000000    0.00000000   -0.67105100
 Cl                 0.00000000    1.45874600    1.60274500
 Cl                 0.00000000   -1.45874600    1.60274500
 Cl                 0.00000000   -1.45874600   -1.60274500
 Cl                 0.00000000    1.45874600   -1.60274500




--link1--
%nproc=8
%chk=G2-76.chk
#p b3lyp/6-311+G(d,p) opt freq

CF3CN

0 1
 C                  0.00000000    0.00000000   -0.31945100
 C                  0.00000000    0.00000000    1.16022100
 F                  0.00000000    1.25506200   -0.78569500
 F                  1.08691500   -0.62753100   -0.78569500
 F                 -1.08691500   -0.62753100   -0.78569500
 N                  0.00000000    0.00000000    2.30987700




--link1--
%nproc=8
%chk=G2-77.chk
#p b3lyp/6-311+G(d,p) opt freq

PROPYNE C3V

0 1
 C                  0.00000000    0.00000000    0.21846700
 C                  0.00000000    0.00000000    1.42076700
 C                  0.00000000    0.00000000   -1.23838700
 H                  0.00000000    0.00000000    2.48305200
 H                  0.00000000    1.02124000   -1.62937900
 H                  0.88441900   -0.51062000   -1.62937900
 H                 -0.88441900   -0.51062000   -1.62937900




--link1--
%nproc=8
%chk=G2-78.chk
#p b3lyp/6-311+G(d,p) opt freq

ALLENE D2D

0 1
 C                  0.00000000    0.00000000    0.00000000
 C                  0.00000000    0.00000000    1.30340000
 C                  0.00000000    0.00000000   -1.30340000
 H                  0.00000000    0.92742300    1.86754100
 H                  0.00000000   -0.92742300    1.86754100
 H                  0.92742300    0.00000000   -1.86754100
 H                 -0.92742300    0.00000000   -1.86754100




--link1--
%nproc=8
%chk=G2-79.chk
#p b3lyp/6-311+G(d,p) opt freq

CYCLOPROPENE C2V

0 1
 C                  0.00000000    0.00000000    0.86390100
 C                  0.00000000    0.64539400   -0.50158700
 C                  0.00000000   -0.64539400   -0.50158700
 H                 -0.91317200    0.00000000    1.46022700
 H                  0.91317200    0.00000000    1.46022700
 H                  0.00000000    1.57594100   -1.04240600
 H                  0.00000000   -1.57594100   -1.04240600




--link1--
%nproc=8
%chk=G2-80.chk
#p b3lyp/6-311+G(d,p) opt freq

PROPENE CS

0 1
 C                  1.29186300    0.15133500    0.00000000
 C                  0.00000000    0.47271600    0.00000000
 H                  1.62124000   -0.88380500    0.00000000
 H                  2.06653600    0.90986300    0.00000000
 H                 -0.27739600    1.52574600    0.00000000
 C                 -1.13785600   -0.50513000    0.00000000
 H                 -0.78046200   -1.53765800    0.00000000
 H                 -1.77698000   -0.36383500    0.87863600
 H                 -1.77698000   -0.36383500   -0.87863600




--link1--
%nproc=8
%chk=G2-81.chk
#p b3lyp/6-311+G(d,p) opt freq

CYCLOPROPANE D3H

0 1
 C                  0.00000000    0.87094400    0.00000000
 C                  0.75425900   -0.43547200    0.00000000
 C                 -0.75425900   -0.43547200    0.00000000
 H                  0.00000000    1.45948200    0.90972300
 H                  0.00000000    1.45948200   -0.90972300
 H                  1.26394900   -0.72974100   -0.90972300
 H                  1.26394900   -0.72974100    0.90972300
 H                 -1.26394900   -0.72974100    0.90972300
 H                 -1.26394900   -0.72974100   -0.90972300




--link1--
%nproc=8
%chk=G2-82.chk
#p b3lyp/6-311+G(d,p) opt freq

PROPANE C2V

0 1
 C                  0.00000000    0.00000000    0.58577400
 C                  0.00000000    1.27707700   -0.25961800
 C                  0.00000000   -1.27707700   -0.25961800
 H                 -0.87544600    0.00000000    1.24503200
 H                  0.87544600    0.00000000    1.24503200
 H                  0.00000000    2.17376500    0.36632100
 H                  0.00000000   -2.17376500    0.36632100
 H                  0.88272100    1.32236100   -0.90548500
 H                 -0.88272100    1.32236100   -0.90548500
 H                 -0.88272100   -1.32236100   -0.90548500
 H                  0.88272100   -1.32236100   -0.90548500




--link1--
%nproc=8
%chk=G2-83.chk
#p b3lyp/6-311+G(d,p) opt freq

TRANS-1,3-BUTADIENE C2H

0 1
 C                  0.60128800    1.74911800    0.00000000
 C                  0.60128800    0.41077600    0.00000000
 C                 -0.60128800   -0.41077600    0.00000000
 C                 -0.60128800   -1.74911800    0.00000000
 H                  1.52323500    2.31803800    0.00000000
 H                 -0.32473200    2.31580700    0.00000000
 H                  1.54993200   -0.12256900    0.00000000
 H                 -1.54993200    0.12256900    0.00000000
 H                  0.32473200   -2.31580700    0.00000000
 H                 -1.52323500   -2.31803800    0.00000000




--link1--
%nproc=8
%chk=G2-84.chk
#p b3lyp/6-311+G(d,p) opt freq

Dimethyl acetylene (2-butyne). D3h (eclipsed).

0 1
 C                  0.00000000    0.00000000    2.06084000
 C                  0.00000000    0.00000000    0.60213700
 C                  0.00000000    0.00000000   -0.60213700
 C                  0.00000000    0.00000000   -2.06084000
 H                  0.00000000    1.02018700    2.45609500
 H                 -0.88350800   -0.51009300    2.45609500
 H                  0.88350800   -0.51009300    2.45609500
 H                  0.00000000    1.02018700   -2.45609500
 H                  0.88350800   -0.51009300   -2.45609500
 H                 -0.88350800   -0.51009300   -2.45609500




--link1--
%nproc=8
%chk=G2-85.chk
#p b3lyp/6-311+G(d,p) opt freq

Methylene cyclopropane. C2v symm.

0 1
 C                  0.00000000    0.00000000    0.31647800
 C                  0.00000000    0.77091700   -0.93151300
 C                  0.00000000   -0.77091700   -0.93151300
 C                  0.00000000    0.00000000    1.63622700
 H                  0.91229500    1.27571200   -1.23500300
 H                 -0.91229500    1.27571200   -1.23500300
 H                 -0.91229500   -1.27571200   -1.23500300
 H                  0.91229500   -1.27571200   -1.23500300
 H                  0.00000000    0.92684600    2.20097000
 H                  0.00000000   -0.92684600    2.20097000




--link1--
%nproc=8
%chk=G2-86.chk
#p b3lyp/6-311+G(d,p) opt freq

Bicyclo[1.1.0]butane. C2v symm.

0 1
 C                  0.00000000    1.13742500    0.31340400
 C                  0.00000000   -1.13742500    0.31340400
 C                  0.74604300    0.00000000   -0.31775500
 C                 -0.74604300    0.00000000   -0.31775500
 H                  0.00000000    1.23767600    1.40007000
 H                  0.00000000    2.08326200   -0.22169800
 H                  0.00000000   -1.23767600    1.40007000
 H                  0.00000000   -2.08326200   -0.22169800
 H                  1.42892300    0.00000000   -1.15226700
 H                 -1.42892300    0.00000000   -1.15226700




--link1--
%nproc=8
%chk=G2-87.chk
#p b3lyp/6-311+G(d,p) opt freq

CYCLOBUTENE

0 1
 C                  0.00000000    0.66940700    0.81435000
 C                  0.00000000   -0.66940700    0.81435000
 C                  0.00000000    0.78659600   -0.70021400
 C                  0.00000000   -0.78659600   -0.70021400
 H                  0.00000000    1.41500600    1.60152300
 H                  0.00000000   -1.41500600    1.60152300
 H                  0.88866800    1.24610300   -1.14316900
 H                 -0.88866800    1.24610300   -1.14316900
 H                 -0.88866800   -1.24610300   -1.14316900
 H                  0.88866800   -1.24610300   -1.14316900




--link1--
%nproc=8
%chk=G2-88.chk
#p b3lyp/6-311+G(d,p) opt freq

CYCLOBUTANE

0 1
 C                  0.00000000    1.08498300    0.12344700
 C                  0.00000000   -1.08498300    0.12344700
 C                 -1.08498300    0.00000000   -0.12344700
 C                  1.08498300    0.00000000   -0.12344700
 H                  0.00000000    1.96172400   -0.52759600
 H                  0.00000000    1.42488000    1.16242700
 H                  0.00000000   -1.96172400   -0.52759600
 H                  0.00000000   -1.42488000    1.16242700
 H                 -1.96172400    0.00000000    0.52759600
 H                 -1.42488000    0.00000000   -1.16242700
 H                  1.96172400    0.00000000    0.52759600
 H                  1.42488000    0.00000000   -1.16242700




--link1--
%nproc=8
%chk=G2-89.chk
#p b3lyp/6-311+G(d,p) opt freq

Isobutene. Single bonds trans. C2v symm.

0 1
 C                  0.00000000    0.00000000    1.45852300
 C                  0.00000000    0.00000000    0.12374000