$molecule
0    1
    C      2.35020783      0.61495772      0.25990594
    C      1.47606189     -0.60282519     -0.02739804
    C      0.11989199     -0.24960021     -0.65394599
    C     -0.92738693      0.32075975      0.33442494
    C     -1.84022187     -0.89040517      0.62445392
    O     -1.30121891     -1.72800411      1.64631984
    C     -1.77629487     -1.65227711     -0.69085099
    O      3.59667074      0.23783675      0.82570590
    O     -1.74524587      1.32725867     -0.24728702
    O      2.23385084     -1.41105813     -0.93031297
    O     -0.44004497     -1.47240112     -1.17819595
    C     -1.13842892      2.60886358     -0.32792701
    H      2.50060682      1.17581168     -0.67616399
    H      1.86995086      1.27720668      0.98690089
    H      1.30297591     -1.15847615      0.90581290
    H      0.26822398      0.44176874     -1.49422293
    H     -0.46538797      0.69971672      1.25881687
    H     -2.85479479     -0.55599819      0.86924090
    H     -1.40143890     -1.29252914      2.50293978
    H     -1.95436386     -2.72212803     -0.56022000
    H     -2.49766282     -1.23668214     -1.40670394
    H      3.95614971     -0.46788820      0.26758594
    H      1.65272188     -2.12712208     -1.22841895
    H     -0.85070594      2.97343555      0.66951291
    H     -0.25040598      2.60702658     -0.97510297
    H     -1.88370986      3.28275253     -0.75486998
$end
   
$rem
mem_static = 200
mem_total  = 7500
exchange = b3lyp
basis = G3Large
max_scf_cycles = 50
scf_convergence = 7
symmetry = false
xc_grid = 000075000302
$end
