$molecule
0    1
    C      2.35979348      0.63040080      0.29012817
    C      1.48261955     -0.58489111      0.00065819
    C      0.12944264     -0.22720114     -0.62704976
    C     -0.91670928      0.36533882      0.35194417
    C     -1.84656221     -0.82279009      0.64273215
    O     -1.26273025     -1.53504304      1.73384707
    C     -1.78811822     -1.59036104     -0.67569676
    O      3.61304639      0.24721283      0.83639813
    O     -1.70898122      1.38207775     -0.24700979
    O      2.24002149     -1.39272505     -0.90581574
    O     -0.44118331     -1.45512505     -1.13717073
    C     -1.08457327      2.65653765     -0.29843579
    H      2.49961747      1.20164376     -0.64145176
    H      1.88714652      1.28286475      1.03033412
    H      1.30707156     -1.14045307      0.93267012
    H      0.28108663      0.45162681     -1.47679170
    H     -0.46542831      0.72841679      1.28488310
    H     -2.85575614     -0.47176812      0.88744113
    H     -1.75060922     -2.35596898      1.87902406
    H     -2.00702920     -2.65853396     -0.57382977
    H     -2.48748117     -1.14759007     -1.39918371
    H      3.96349937     -0.45530912      0.26870517
    H      1.66029253     -2.10877600     -1.20516572
    H     -0.82146029      3.00827763      0.70993314
    H     -0.17824033      2.64888765     -0.92016074
    H     -1.80877521      3.34325060     -0.74093675
$end
   
$rem
mem_static = 200
mem_total  = 7500
exchange = b3lyp
basis = G3Large
max_scf_cycles = 50
scf_convergence = 7
symmetry = false
xc_grid = 000075000302
$end
