$molecule
0    1
    C      2.67685304      0.77210698      0.03217107
    C      1.93735509     -0.53973692      0.32392505
    C      0.61566619     -0.68712191     -0.44490189
    C     -0.56707373      0.16612903      0.04644807
    C     -1.77344964     -0.74942191     -0.19578491
    O     -2.85683856     -0.38452393      0.65392103
    C     -1.17673668     -2.12723281      0.11537507
    O      1.99016909      1.92528290      0.49924104
    O     -0.57373073      1.39773294     -0.66423887
    O      2.82827703     -1.58123285     -0.06410692
    O      0.18292622     -2.06449681     -0.32882390
    C     -1.51337766      2.36486387     -0.17797891
    H      2.88366202      0.83278298     -1.04648585
    H      3.63756697      0.74021598      0.55204904
    H      1.72521811     -0.59987792      1.40379097
    H      0.79388517     -0.47760693     -1.50904181
    H     -0.49511873      0.36275001      1.12749800
    H     -2.06505362     -0.67668891     -1.25307383
    H     -3.63853350     -0.90218690      0.42063905
    H     -1.67018965     -2.95076475     -0.41107689
    H     -1.22766368     -2.31364479      1.19757599
    H      1.18954514      2.03562889     -0.04106192
    H      2.32591506     -2.40942679     -0.04917292
    H     -2.54275958      2.01702289     -0.30296590
    H     -1.33521867      2.58048585      0.88372401
    H     -1.35129467      3.26896180     -0.76764387
$end
   
$rem
mem_static = 200
mem_total  = 7500
exchange = b3lyp
basis = G3Large
max_scf_cycles = 50
scf_convergence = 7
symmetry = false
xc_grid = 000075000302
$end
