$molecule
0    1
    C     -2.99721447     -0.66535287     -0.39793020
    C     -1.58782058     -0.93957885      0.15105576
    C     -0.51409666     -0.11679191     -0.57398919
    C      0.89701324     -0.23388091      0.01690777
    C      1.48485920      1.16427599     -0.21212022
    O      2.53195912      1.42571697      0.71787772
    C      0.25105829      2.05579193     -0.02531123
    O     -3.48778144      0.59518303      0.05886376
    O      1.57153519     -1.29378883     -0.63476618
    O     -1.56702158     -0.72049287      1.55783866
    O     -0.84799063      1.29639198     -0.55162919
    C      2.71685811     -1.78265379      0.06072676
    H     -3.69439942     -1.41502582     -0.01401423
    H     -2.99728847     -0.72221387     -1.49599412
    H     -1.33979259     -1.99615478     -0.01626723
    H     -0.48025966     -0.43980789     -1.62398511
    H      0.84319725     -0.41576189      1.09969569
    H      1.85897617      1.22228699     -1.24395814
    H      2.98927409      2.23914991      0.46837073
    H      0.30095229      3.00308586     -0.57195219
    H      0.10342830      2.26167291      1.04376169
    H     -2.85555848      1.26944098     -0.24341921
    H     -2.21449753     -0.01895092      1.73582964
    H      3.49862305     -1.01895685      0.14202176
    H      2.44665713     -2.12293877      1.07021469
    H      3.08933008     -2.63064573     -0.51782819
$end
   
$rem
mem_static = 200
mem_total  = 7500
exchange = b3lyp
basis = G3Large
max_scf_cycles = 50
scf_convergence = 7
symmetry = false
xc_grid = 000075000302
$end
