$molecule
0    1
    C      0.83660779     -0.22447840      1.12131106
    C      0.38256611     -1.35878606      0.18126710
    C     -0.59186514     -0.88901846     -0.92509851
    O     -0.15285329      0.32316199     -1.57075682
    C      1.26414220      1.01291691      0.31063297
    C      0.24595646      1.42540300     -0.77921660
    O     -0.81174846      2.17509583     -0.24449359
    O      1.52054544     -1.99625035     -0.38583065
    C     -2.08223111     -0.85407632     -0.55296488
    H     -1.54637343      1.56562325      0.00815162
    O     -2.46122181      0.10588577      0.43434035
    H      2.12042608     -1.29929421     -0.71142305
    H     -1.91964829     -0.04722816      1.23607227
    O     -0.24040670      0.05813989      2.02784403
    O      2.52080434      0.64123775     -0.27613946
    H      0.75675931      2.09008914     -1.48843624
    H     -0.11757539     -2.12568879      0.78349303
    H      2.78706040      1.31321786     -0.92432125
    H     -0.51173713     -1.64400137     -1.71584747
    H     -2.65403652     -0.59659193     -1.44843551
    H     -0.07330010      0.89763631      2.48610512
    H      1.70354641     -0.58403062      1.68835447
    H      1.40504716      1.87532475      0.97940006
    H     -2.38046431     -1.86428778     -0.23400805
$end
   
$rem
mem_static = 200
mem_total  = 7500
exchange = b3lyp
basis = G3Large
max_scf_cycles = 50
scf_convergence = 7
symmetry = false
xc_grid = 000075000302
$end
