#p b3lyp 6-311+g(3df,2p) scf=tight nosymm

alcl3

0    1
   Al      0.00000000      0.00000000      0.00000000
   Cl     -1.03548530     -1.79351315      0.00000000
   Cl     -1.03548530      1.79351315      0.00000000
   Cl      2.07097060      0.00000000      0.00000000
 
 
 
