#p b3lyp 6-311+g(3df,2p) scf=tight nosymm

alcl

0    1
   Cl      0.00000000      0.00000000     -1.07052550
   Al      0.00000000      0.00000000      1.07052550
 
 
 
