#p b3lyp 6-311+g(3df,2p) scf=tight nosymm

alf

0    1
   Al      0.00000000      0.00000000     -0.81586161
    F      0.00000000      0.00000000      0.81586161
 
 
 
