#p b3lyp 6-311+g(3df,2p) scf=tight nosymm

alf3

0    1
   Al      0.00000000      0.00000000      0.00000000
    F      0.83152494      1.44024344      0.00000000
    F      0.83152494     -1.44024344      0.00000000
    F     -1.66304988      0.00000000      0.00000000
 
 
 
