#p b3lyp 6-311+g(3df,2p) scf=tight nosymm

alh

0    1
   Al      0.00000000      0.00000000     -0.83472482
    H      0.00000000      0.00000000      0.83472482
 
 
 
