#p b3lyp 6-311+g(3df,2p) scf=tight nosymm

alh3

0    1
   Al      0.00000000      0.00000000      0.00000000
    H      0.79423189      1.37564998      0.00000000
    H      0.79423189     -1.37564998      0.00000000
    H     -1.58846378      0.00000000      0.00000000
 
 
 
