#p b3lyp 6-311+g(3df,2p) scf=tight nosymm

b2

0    3
    B      0.00000000      0.00000000      0.80704739
    B      0.00000000      0.00000000     -0.80704739
 
 
 
