#p b3lyp 6-311+g(3df,2p) scf=tight nosymm

becl2

0    1
   Be      0.00000000      0.00000000      0.00000000
   Cl      0.00000000      0.00000000      1.79983987
   Cl      0.00000000      0.00000000     -1.79983987
 
 
 
