#p b3lyp 6-311+g(3df,2p) scf=tight nosymm

bef2

0    1
   Be      0.00000000      0.00000000      0.00000000
    F      0.00000000      0.00000000      1.37958990
    F      0.00000000      0.00000000     -1.37958990
 
 
 
