#p b3lyp 6-311+g(3df,2p) scf=tight nosymm

bf

0    1
    B      0.00000000      0.00000000     -0.63375000
    F      0.00000000      0.00000000      0.63375000
 
 
 
