#p b3lyp 6-311+g(3df,2p) scf=tight nosymm

bf2h

0    1
    B      0.00000000      0.00000000     -0.04010083
    H      0.00000000      0.00000000     -1.23040106
    F      1.12620888      0.00000000      0.63525095
    F     -1.12620888      0.00000000      0.63525095
 
 
 
