#p b3lyp 6-311+g(3df,2p) scf=tight nosymm

bf3

0    1
    B      0.00000000      0.00000000      0.00000000
    F     -0.65514995     -1.13475300      0.00000000
    F     -0.65514995      1.13475300      0.00000000
    F      1.31029990      0.00000000      0.00000000
 
 
 
