#p b3lyp 6-311+g(3df,2p) scf=tight nosymm

bh

0    1
    B      0.00000000      0.00000000      0.00000000
    H      0.00000000      0.00000000      1.23325000
 
 
 
