#p b3lyp 6-311+g(3df,2p) scf=tight nosymm

bh3

0    1
    B      0.00000000      0.00000000      0.00000000
    H     -0.59494996     -1.03048355      0.00000000
    H     -0.59494996      1.03048355      0.00000000
    H      1.18989991      0.00000000      0.00000000
 
 
 
