#p b3lyp 6-311+g(3df,2p) scf=tight nosymm

bn_S

0    1
    B      0.00000000      0.00000000     -0.64150000
    N      0.00000000      0.00000000      0.64150000
 
 
 
