#p b3lyp 6-311+g(3df,2p) scf=tight nosymm

bn_T

0    3
    B      0.00000000      0.00000000      0.00000000
    N      0.00000000      0.00000000      1.33020000
 
 
 
