#p b3lyp 6-311+g(3df,2p) scf=tight nosymm

c2

0    1
    C      0.00000000      0.00000000     -0.62000000
    C      0.00000000      0.00000000      0.62000000
 
 
 
