#p b3lyp 6-311+g(3df,2p) scf=tight nosymm

c2h

0    2
    C      0.00000000      0.00000000     -1.16238592
    H      0.00000000      0.00000000      1.11345692
    C      0.00000000      0.00000000      0.04892900
 
 
 
