#p b3lyp 6-311+g(3df,2p) scf=tight nosymm

ccl2

0    1
    C      0.00000000      0.00000000      0.66375052
   Cl      1.40040688      0.00000000     -0.33187526
   Cl     -1.40040688      0.00000000     -0.33187526
 
 
 
