#p b3lyp 6-311+g(3df,2p) scf=tight nosymm

cf

0    2
    C      0.00000000      0.00000000     -0.77703153
    F      0.00000000      0.00000000      0.49125412
 
 
 
