#p b3lyp 6-311+g(3df,2p) scf=tight nosymm

cf2

0    1
    C      0.00000000      0.00000000      0.52734358
    F      1.02798972      0.00000000     -0.26367179
    F     -1.02798972      0.00000000     -0.26367179
 
 
 
