#p b3lyp 6-311+g(3df,2p) scf=tight nosymm

ch

0    2
    C      0.00000000      0.00000000      0.00000000
    H      0.00000000      0.00000000      1.12021524
 
 
 
