#p b3lyp 6-311+g(3df,2p) scf=tight nosymm

ch2

0    3
    C      0.00000000      0.00000000      0.28269524
    H      0.99029117      0.00000000     -0.14134762
    H     -0.99029117      0.00000000     -0.14134762
 
 
 
