#p b3lyp 6-311+g(3df,2p) scf=tight nosymm

ch2ch

0    2
    C     -0.84337607      0.21932822      0.00000000
    H     -1.69009633     -0.44881923      0.00000000
    C      0.46587332      0.11175806      0.00000000
    H      1.11434703      0.98078493      0.00000000
    H      0.95325204     -0.86305197      0.00000000
 
 
 
