#p b3lyp 6-311+g(3df,2p) scf=tight nosymm

ch2c

0    1
    C      0.00000000      0.00000000     -1.24854491
    C      0.00000000      0.00000000      0.05422500
    H     -0.94039093      0.00000000      0.59715996
    H      0.94039093      0.00000000      0.59715996
 
 
 
