#p b3lyp 6-311+g(3df,2p) scf=tight nosymm

ch2o

0    1
    O      0.00000000      0.00000000     -1.19519191
    C      0.00000000      0.00000000      0.01140800
    H     -0.93695393      0.00000000      0.59189196
    H      0.93695393      0.00000000      0.59189196
 
 
 
