#p b3lyp 6-311+g(3df,2p) scf=tight nosymm

ch3nh2

0    1
    C     -0.56458370      0.09903004      0.00000000
    N      0.89804094      0.18569810      0.00000000
    H     -0.96701239     -0.92007218      0.00000000
    H     -0.95220072      0.61587684     -0.87762982
    H     -0.95220072      0.61587684      0.87762982
    H      1.26897829     -0.29820482      0.80759322
    H      1.26897829     -0.29820482     -0.80759322
 
 
 
