#p b3lyp 6-311+g(3df,2p) scf=tight nosymm

cl2o

0    1
    O      0.00000000      0.00000000      0.64241498
   Cl      1.40117137      0.00000000     -0.32120749
   Cl     -1.40117137      0.00000000     -0.32120749
 
 
 
