#p b3lyp 6-311+g(3df,2p) scf=tight nosymm

clf

0    1
   Cl      0.00000000      0.00000000     -0.81591150
    F      0.00000000      0.00000000      0.81591150
 
 
 
