#p b3lyp 6-311+g(3df,2p) scf=tight nosymm

clo

0    2
   Cl      0.00000000      0.00000000      0.00000000
    O      0.00000000      0.00000000      1.57483138
 
 
 
