#p b3lyp 6-311+g(3df,2p) scf=tight nosymm

cloo

0    2
    O     -1.10986551     -0.64246787      0.00000000
    O      0.09113440     -0.64246787      0.00000000
   Cl      1.01873111      1.28493574      0.00000000
 
 
 
