#p b3lyp 6-311+g(3df,2p) scf=tight nosymm

cn

0    2
    C      0.00000000      0.00000000     -0.58591000
    N      0.00000000      0.00000000      0.58591000
 
 
 
