#p b3lyp 6-311+g(3df,2p) scf=tight nosymm

co2

0    1
    C      0.00000000      0.00000000      0.00000000
    O      0.00000000      0.00000000      1.16259992
    O      0.00000000      0.00000000     -1.16259992
 
 
 
