#p b3lyp 6-311+g(3df,2p) scf=tight nosymm

cs

0    1
    C      0.00000000      0.00000000     -0.77076650
    S      0.00000000      0.00000000      0.77076650
 
 
 
