#p b3lyp 6-311+g(3df,2p) scf=tight nosymm

f2o

0    1
    F     -1.10077105      0.00000000      0.29135325
    O      0.00000000      0.00000000     -0.58270650
    F      1.10077105      0.00000000      0.29135325
 
 
 
