#p b3lyp 6-311+g(3df,2p) scf=tight nosymm

fo2

0    2
    F      1.27401066      0.16630341      0.00000000
    O     -0.21460446     -0.50359036      0.00000000
    O     -1.05940619      0.33728695      0.00000000
 
 
 
