#p b3lyp 6-311+g(3df,2p) scf=tight nosymm

foof

0    1
    F      1.48811385      0.10483207     -0.52485998
    O      0.48398008     -0.38275086      0.52485998
    O     -0.48398008      0.38275086      0.52485998
    F     -1.48811385     -0.10483207     -0.52485998
 
 
 
