#p b3lyp 6-311+g(3df,2p) scf=tight nosymm

h2

0    1
    H      0.00000000      0.00000000     -0.39259446
    H      0.00000000      0.00000000      0.39259446
 
 
 
