#p b3lyp 6-311+g(3df,2p) scf=tight nosymm

h2cn

0    2
    C      0.00000000      0.00000000      0.02913411
    H     -0.93673107      0.00000000      0.59554553
    H      0.93673107      0.00000000      0.59554553
    N      0.00000000      0.00000000     -1.22022516
 
 
 
