#p b3lyp 6-311+g(3df,2p) scf=tight nosymm

h2o

0    1
    O      0.00000000      0.00000000      0.39263420
    H      0.75545260      0.00000000     -0.19631710
    H     -0.75545260      0.00000000     -0.19631710
 
 
 
