#p b3lyp 6-311+g(3df,2p) scf=tight nosymm

h2o2

0    1
    H     -0.95317511     -0.71301474     -0.26359470
    O     -0.72382786      0.05914931      0.26359470
    O      0.72382786     -0.05914931      0.26359470
    H      0.95317511      0.71301474     -0.26359470
 
 
 
