#p b3lyp 6-311+g(3df,2p) scf=tight nosymm

h2s

0    1
    S      0.00000000      0.00000000      0.61765607
    H      0.96495759      0.00000000     -0.30882803
    H     -0.96495759      0.00000000     -0.30882803
 
 
 
