#p b3lyp 6-311+g(3df,2p) scf=tight nosymm

hcn

0    1
    H      0.00000000      0.00000000      1.09666659
    C      0.00000000      0.00000000      0.02986666
    N      0.00000000      0.00000000     -1.12653325
 
 
 
