#p b3lyp 6-311+g(3df,2p) scf=tight nosymm

hco

0    2
    O      1.02482161     -0.19503552      0.00000000
    C     -0.14635986     -0.32605220      0.00000000
    H     -0.87846175      0.52108772      0.00000000
 
 
 
