#p b3lyp 6-311+g(3df,2p) scf=tight nosymm

hno

0    1
    O      0.94107969     -0.25381148      0.00000000
    N     -0.26510792     -0.35814917      0.00000000
    H     -0.67597177      0.61196065      0.00000000
 
 
 
