#p b3lyp 6-311+g(3df,2p) scf=tight nosymm

hocl

0    1
    O     -0.48169163      0.33261815      0.00000000
    H     -0.72950729     -0.59888090      0.00000000
   Cl      1.21119892      0.26626275      0.00000000
 
 
 
