#p b3lyp 6-311+g(3df,2p) scf=tight nosymm

hof

0    1
    H      0.59534198      0.61063192      0.00000000
    O      0.41888580     -0.33960924      0.00000000
    F     -1.01422778     -0.27102268      0.00000000
 
 
 
