#p b3lyp 6-311+g(3df,2p) scf=tight nosymm

hoo

0    2
    O      0.98306959     -0.25632496      0.00000000
    O     -0.34491731     -0.33432991      0.00000000
    H     -0.63815228      0.59065487      0.00000000
 
 
 
