#p b3lyp 6-311+g(3df,2p) scf=tight nosymm

hs

0    2
    S      0.00000000      0.00000000      0.00000000
    H      0.00000000      0.00000000      1.34251000
 
 
 
