#p b3lyp 6-311+g(3df,2p) scf=tight nosymm

n2h

0    2
    H      0.76230219      0.55589647      0.00000000
    N      0.20572024     -0.33437190      0.00000000
    N     -0.96802242     -0.22152457      0.00000000
 
 
 
