#p b3lyp 6-311+g(3df,2p) scf=tight nosymm

n2h2

0    1
    H      1.05921401      0.82708186      0.00000000
    N      0.61625766     -0.10229432      0.00000000
    N     -0.61625766      0.10229432      0.00000000
    H     -1.05921401     -0.82708186      0.00000000
 
 
 
