#p b3lyp 6-311+g(3df,2p) scf=tight nosymm

n2o

0    1
    N      0.00000000      0.00000000     -0.01930000
    N      0.00000000      0.00000000     -1.14839992
    O      0.00000000      0.00000000      1.16769991
 
 
 
