#p b3lyp 6-311+g(3df,2p) scf=tight nosymm

nccn

0    1
    N      0.00000000      0.00000000      1.85519837
    C      0.00000000      0.00000000      0.69392145
    C      0.00000000      0.00000000     -0.69392145
    N      0.00000000      0.00000000     -1.85519837
 
 
 
