#p b3lyp 6-311+g(3df,2p) scf=tight nosymm

nh

0    3
    N      0.00000000      0.00000000     -0.06970994
    H      0.00000000      0.00000000      0.96868574
 
 
 
