#p b3lyp 6-311+g(3df,2p) scf=tight nosymm

nh2

0    2
    N      0.00000000      0.00000000      0.42670397
    H      0.80064547      0.00000000     -0.21335198
    H     -0.80064547      0.00000000     -0.21335198
 
 
 
