#p b3lyp 6-311+g(3df,2p) scf=tight nosymm

nh3

0    1
    N      0.00000000      0.00000000      0.29167748
    H     -0.46736195     -0.80949464     -0.09722583
    H     -0.46736195      0.80949464     -0.09722583
    H      0.93472389      0.00000000     -0.09722583
 
 
 
