#p b3lyp 6-311+g(3df,2p) scf=tight nosymm

no

0    2
    O      0.00000000      0.00000000     -0.57296020
    N      0.00000000      0.00000000      0.57296020
 
 
 
