#p b3lyp 6-311+g(3df,2p) scf=tight nosymm

no2

0    2
    N      0.00000000      0.00000000      0.31046802
    O      1.10123434      0.00000000     -0.15523401
    O     -1.10123434      0.00000000     -0.15523401
 
 
 
