#p b3lyp 6-311+g(3df,2p) scf=tight nosymm

o2

0    3
    O      0.00000000      0.00000000      0.60452684
    O      0.00000000      0.00000000     -0.60452684
 
 
 
