#p b3lyp 6-311+g(3df,2p) scf=tight nosymm

o3

0    1
    O      0.00000000      0.00000000      0.44122433
    O      1.08252537      0.00000000     -0.22061217
    O     -1.08252537      0.00000000     -0.22061217
 
 
 
