#p b3lyp 6-311+g(3df,2p) scf=tight nosymm

oclo

0    2
   Cl      0.00000000      0.00000000      0.50949292
    O      1.25908175      0.00000000     -0.25474646
    O     -1.25908175      0.00000000     -0.25474646
 
 
 
