#p b3lyp 6-311+g(3df,2p) scf=tight nosymm

ocs

0    1
    O      0.00000000      0.00000000     -1.29457157
    C      0.00000000      0.00000000     -0.13613966
    S      0.00000000      0.00000000      1.43071123
 
 
 
