#p b3lyp 6-311+g(3df,2p) scf=tight nosymm

of

0    2
    F      0.00000000      0.00000000     -0.67650015
    O      0.00000000      0.00000000      0.67650015
 
 
 
