#p b3lyp 6-311+g(3df,2p) scf=tight nosymm

oh

0    2
    O      0.00000000      0.00000000      0.00000000
    H      0.00000000      0.00000000      0.97066000
 
 
 
