#p b3lyp 6-311+g(3df,2p) scf=tight nosymm

p2

0    1
    P      0.00000000      0.00000000      0.95099463
    P      0.00000000      0.00000000     -0.95099463
 
 
 
