#p b3lyp 6-311+g(3df,2p) scf=tight nosymm

p4

0    1
    P     -0.77737520     -0.77737520     -0.77737520
    P      0.77737520      0.77737520     -0.77737520
    P     -0.77737520      0.77737520      0.77737520
    P      0.77737520     -0.77737520      0.77737520
 
 
 
