#p b3lyp 6-311+g(3df,2p) scf=tight nosymm

ph3

0    1
    P      0.00000000      0.00000000     -0.57333681
    H      0.59517161      1.03086746      0.19111227
    H      0.59517161     -1.03086746      0.19111227
    H     -1.19034322      0.00000000      0.19111227
 
 
 
