#p b3lyp 6-311+g(3df,2p) scf=tight nosymm

s2o

0    1
    S      1.54823333      0.07201852      0.00000000
    S     -0.24270008     -0.53644750      0.00000000
    O     -1.30553325      0.46442898      0.00000000
 
 
 
