#p b3lyp 6-311+g(3df,2p) scf=tight nosymm

s3

0    1
    S      0.00000000      0.00000000      0.66531242
    S      1.64006376      0.00000000     -0.33265621
    S     -1.64006376      0.00000000     -0.33265621
 
 
 
