#p b3lyp 6-311+g(3df,2p) scf=tight nosymm

s4

0    1
    S      1.55234271      0.00000000     -0.92196086
    S      1.06850820      0.00000000      0.92196086
    S     -1.06850820      0.00000000      0.92196086
    S     -1.55234271      0.00000000     -0.92196086
 
 
 
