#p b3lyp 6-311+g(3df,2p) scf=tight nosymm

sif

0    2
    F      0.00000000      0.00000000     -0.96636315
   Si      0.00000000      0.00000000      0.65368346
 
 
 
