#p b3lyp 6-311+g(3df,2p) scf=tight nosymm

sih

0    2
    H      0.00000000      0.00000000     -0.84692711
   Si      0.00000000      0.00000000      0.68817394
 
 
 
