#p b3lyp 6-311+g(3df,2p) scf=tight nosymm

sio

0    1
   Si      0.00000000      0.00000000     -0.75853849
    O      0.00000000      0.00000000      0.75853849
 
 
 
