#p b3lyp 6-311+g(3df,2p) scf=tight nosymm

so

0    3
    S      0.00000000      0.00000000      0.00000000
    O      0.00000000      0.00000000      1.48621500
 
 
 
