#p b3lyp 6-311+g(3df,2p) scf=tight nosymm

so2

0    1
    S      0.00000000      0.00000000      0.48294256
    O      1.23931851      0.00000000     -0.24147128
    O     -1.23931851      0.00000000     -0.24147128
 
 
 
