#p b3lyp 6-311+g(3df,2p) scf=tight nosymm

so3

0    1
    S      0.00000000      0.00000000      0.00000000
    O      0.71547508      1.23923918      0.00000000
    O      0.71547508     -1.23923918      0.00000000
    O     -1.43095015      0.00000000      0.00000000
 
 
 
