#p b3lyp 6-311+g(3df,2p) scf=tight nosymm

ssh

0    2
    S     -0.55892300      0.45627944      0.00000000
    H     -0.85785429     -0.86051793      0.00000000
    S      1.41677729      0.40423849      0.00000000
 
 
 
