# The project environment :
#     "ProjDir" specifying the storage DIR of this project
#     "ProjCtrl" = 0 : to run all the jobs
#           = 1 : to fetch result from existed log and chk files
#           = 2 : to run the job without corresponding log or chk files
#       "ProjTool" = "Gaussian" : to run jobs using Gaussian package (default)
#                  = "QChem"    : to run jobs using Q-Chem package
#                "ProjDir"       "ProjCtrl"      "ProjTool"
__project__ ::   ./BH76            2             QChem

# The project description
__title__ ::
"============================== BH76 set ============================="
"        This is BH76 subset from GMTKN30 proposed by Grimme          "
" The first 76 training cases :: BH76                                 "
" The rest 30  training cases :: BH76RC                               "
"        def2-QZVP is used here                                       "

# $rem group of Q-Chem Package
__qchem__ ::  1  rmp2 # 0 for serial version Q-Chem and 1 for parallel version Q-Chem
$rem
mem_static      = 200
mem_total       = 7500
exchange        = b3lyp
basis           = gen
max_scf_cycles  = 50
scf_convergence = 7
symmetry        = false
xc_grid         = 000075000302
$end
$basis
H     0 
S   4   1.00
    190.6916900              0.70815167E-03   
     28.6055320              0.54678827E-02   
      6.5095943              0.27966605E-01   
      1.8412455              0.10764538       
S   1   1.00
      0.59853725             1.0000000        
S   1   1.00
      0.21397624             1.0000000        
S   1   1.00
      0.80316286E-01         1.0000000        
P   1   1.00
      2.29200000             1.0000000        
P   1   1.00
      0.83800000             1.0000000        
P   1   1.00
      0.29200000             1.0000000        
D   1   1.00
      2.06200000             1.0000000        
D   1   1.00
      0.66200000             1.0000000        
F   1   1.00
      1.39700000             1.0000000        
****
C     0 
S   8   1.00
  67025.0710290              0.38736308501E-04      
  10039.9865380              0.30107917575E-03      
   2284.9316911              0.15787918095E-02      
    647.14122130             0.66087087195E-02      
    211.09472335             0.23367123250E-01      
     76.177643862            0.70420716898E-01      
     29.633839163            0.17360344953    
     12.187785081            0.32292305648    
S   2   1.00
     53.026006299            0.74897404492E-01      
     15.258502776            0.76136220983    
S   1   1.00
      5.2403957464           1.0000000        
S   1   1.00
      2.2905022379           1.0000000        
S   1   1.00
      0.69673283006          1.0000000        
S   1   1.00
      0.27599337363          1.0000000        
S   1   1.00
      0.10739884389          1.0000000        
P   5   1.00
    105.12555082             0.84647553844E-03      
     24.884461066            0.66274038534E-02      
      7.8637230826           0.30120390419E-01      
      2.8407001835           0.99951435476E-01      
      1.1227137335           0.23826299282    
P   1   1.00
      0.46050725555          1.0000000        
P   1   1.00
      0.18937530913          1.0000000        
P   1   1.00
      0.75983791611E-01            1.0000000        
D   1   1.00
      1.84800000             1.0000000        
D   1   1.00
      0.64900000             1.0000000        
D   1   1.00
      0.22800000             1.0000000        
F   1   1.00
      1.41900000             1.0000000        
F   1   1.00
      0.48500000             1.0000000        
G   1   1.00
      1.01100000             1.0000000        
****
N     0 
S   8   1.00
  90726.8892100              0.39257887368E-04      
  13590.5288010              0.30513316455E-03      
   3092.9883781              0.16000560446E-02      
    875.99876362             0.66982937306E-02      
    285.74469982             0.23690078765E-01      
    103.11913417             0.71455405268E-01      
     40.128556777            0.17632774876    
     16.528095704            0.32677592815    
S   2   1.00
     69.390960983            0.80052094386E-01      
     20.428200596            0.78268063538    
S   1   1.00
      7.1292587972           1.0000000        
S   1   1.00
      3.1324304893           1.0000000        
S   1   1.00
      0.98755778723          1.0000000        
S   1   1.00
      0.38765721307          1.0000000        
S   1   1.00
      0.14909883075          1.0000000        
P   5   1.00
    150.05742670            -0.86216165986E-03      
     35.491599483           -0.68571273236E-02      
     11.247864223           -0.31795688855E-01      
      4.0900305195          -0.10537396822    
      1.6220573146          -0.24519708041    
P   1   1.00
      0.66442261530          1.0000000        
P   1   1.00
      0.27099770070          1.0000000        
P   1   1.00
      0.10688749984          1.0000000        
D   1   1.00
      2.83700000             1.0000000        
D   1   1.00
      0.96800000             1.0000000        
D   1   1.00
      0.33500000             1.0000000        
F   1   1.00
      2.02700000             1.0000000        
F   1   1.00
      0.68500000             1.0000000        
G   1   1.00
      1.42700000             1.0000000        
****
O     0 
S   8   1.00
 116506.4690800              0.40383857939E-04      
  17504.3497240              0.31255139004E-03      
   3993.4513230              0.16341473495E-02      
   1133.0063186              0.68283224757E-02      
    369.99569594             0.24124410221E-01      
    133.62074349             0.72730206154E-01      
     52.035643649            0.17934429892    
     21.461939313            0.33059588895    
S   2   1.00
     89.835051252            0.96468652996E-01      
     26.428010844            0.94117481120    
S   1   1.00
      9.2822824649           1.0000000        
S   1   1.00
      4.0947728533           1.0000000        
S   1   1.00
      1.3255349078           1.0000000        
S   1   1.00
      0.51877230787          1.0000000        
S   1   1.00
      0.19772676454          1.0000000        
P   5   1.00
    191.15255810             0.25115697705E-02      
     45.233356739            0.20039240864E-01      
     14.353465922            0.93609064762E-01      
      5.2422371832           0.30618127124    
      2.0792418599           0.67810501439    
P   1   1.00
      0.84282371424          1.0000000        
P   1   1.00
      0.33617694891          1.0000000        
P   1   1.00
      0.12863997974          1.0000000        
D   1   1.00
      3.77500000             1.0000000        
D   1   1.00
      1.30000000             1.0000000        
D   1   1.00
      0.44400000             1.0000000        
F   1   1.00
      2.66600000             1.0000000        
F   1   1.00
      0.85900000             1.0000000        
G   1   1.00
      1.84600000             1.0000000        
****
F     0 
S   8   1.00
 132535.9734500              0.47387482743E-04      
  19758.1125880              0.37070120897E-03      
   4485.1996947              0.19450784713E-02      
   1273.8151020              0.80573291994E-02      
    418.93831236             0.27992880781E-01      
    152.55721985             0.82735120175E-01      
     59.821524823            0.19854169012    
     24.819076932            0.34860632233    
S   2   1.00
    100.74446673             0.10505068816    
     30.103728290            0.94068472434    
S   1   1.00
     10.814283272            1.0000000        
S   1   1.00
      4.8172886770           1.0000000        
S   1   1.00
      1.6559334213           1.0000000        
S   1   1.00
      0.64893519582          1.0000000        
S   1   1.00
      0.24778104545          1.0000000        
P   5   1.00
    240.96654114             0.30389933451E-02      
     57.020699781            0.24357738582E-01      
     18.126952120            0.11442925768    
      6.6457404621           0.37064659853    
      2.6375722892           0.79791551766    
P   1   1.00
      1.0638217200           1.0000000        
P   1   1.00
      0.41932562750          1.0000000        
P   1   1.00
      0.15747588299          1.0000000        
D   1   1.00
      5.01400000             1.0000000        
D   1   1.00
      1.72500000             1.0000000        
D   1   1.00
      0.58600000             1.0000000        
F   1   1.00
      3.56200000             1.0000000        
F   1   1.00
      1.14800000             1.0000000        
G   1   1.00
      2.37600000             1.0000000        
****
P     0 
S   10   1.00
 1090561.7138000             0.12142449664E-04      
 163316.3946100              0.94395292614E-04      
  37166.6074510              0.49622262177E-03      
  10526.8809450              0.20900040747E-02      
   3433.9976028              0.75489230025E-02      
   1239.5360480              0.24010423937E-01      
    483.27456199             0.67231473697E-01      
    200.16911586             0.15978669881    
     86.960394829            0.29735906782    
     39.211283369            0.36187171850    
S   3   1.00
    336.75883662             0.19154721050E-01      
    103.72179793             0.17134079100    
     39.771861240            0.63689655985    
S   1   1.00
     17.888612952            1.0000000        
S   1   1.00
      6.9644556879           1.0000000        
S   1   1.00
      3.2198092087           1.0000000        
S   1   1.00
      1.4669943979           1.0000000        
S   1   1.00
      0.47765437532          1.0000000        
S   1   1.00
      0.21637789241          1.0000000        
S   1   1.00
      0.90235894336E-01            1.0000000        
P   8   1.00
   2019.6711374              0.21359172406E-03      
    478.60125090             0.18568771399E-02      
    155.14942504             0.10070690115E-01      
     58.816356575            0.39605153679E-01      
     24.544512785            0.11736067844    
     10.883571061            0.24950540642    
      4.9624791285           0.36421287984    
      2.3002912343           0.31764127123    
P   2   1.00
     59.371345016            0.39432918004    
      3.0694590986          -6.3522960431     
P   1   1.00
      1.0634401739           1.0000000        
P   1   1.00
      0.45022152161          1.0000000        
P   1   1.00
      0.18267271344          1.0000000        
P   1   1.00
      0.71610333771E-01            1.0000000        
D   1   1.00
      3.34300000             1.0000000        
D   1   1.00
      0.807000000            1.0000000        
D   1   1.00
      0.365000000            1.0000000        
D   1   1.00
      0.154000000            1.0000000        
F   1   1.00
      0.280000000            1.0000000        
F   1   1.00
      0.703000000            1.0000000        
G   1   1.00
      0.597000000            1.0000000        
****
S     0 
S   10   1.00
 1273410.9023000             0.11767088246E-04      
 190697.8300700              0.91478610166E-04      
  43397.8853300              0.48090078640E-03      
  12291.8096770              0.20257193592E-02      
   4009.7420824              0.73190096406E-02      
   1447.3531030              0.23300499900E-01      
    564.30102913             0.65386213610E-01      
    233.74506243             0.15614449910    
    101.56402814             0.29318563787    
     45.805907187            0.36287914289    
S   3   1.00
    394.27281503             0.18753305081E-01      
    121.72249591             0.16870726663    
     46.754125963            0.63806830653    
S   1   1.00
     20.923008254            1.0000000        
S   1   1.00
      8.2685567800           1.0000000        
S   1   1.00
      3.8629345671           1.0000000        
S   1   1.00
      1.7794684781           1.0000000        
S   1   1.00
      0.61064260103          1.0000000        
S   1   1.00
      0.27412269445          1.0000000        
S   1   1.00
      0.11325939107          1.0000000        
P   8   1.00
   2189.8930459              0.23912552864E-03      
    518.94596592             0.20772032158E-02      
    168.19560151             0.11242420571E-01      
     63.745282788            0.44069933941E-01      
     26.597033077            0.12918778608    
     11.774251449            0.26910820167    
      5.3534379024           0.37855928620    
      2.4701911802           0.29692134655    
P   2   1.00
     82.120288349           -0.39420318847E-01      
      4.9523532869           0.64048403090    
P   1   1.00
      1.0828262029           1.0000000        
P   1   1.00
      0.49271277356          1.0000000        
P   1   1.00
      0.20483450942          1.0000000        
P   1   1.00
      0.80743615716E-01            1.0000000        
D   1   1.00
      4.15900000             1.0000000        
D   1   1.00
      1.01900000             1.0000000        
D   1   1.00
      0.464000000            1.0000000        
D   1   1.00
      0.194000000            1.0000000        
F   1   1.00
      0.335000000            1.0000000        
F   1   1.00
      0.869000000            1.0000000        
G   1   1.00
      0.683000000            1.0000000        
****
Cl     0 
S   10   1.00
 1467459.0095000             0.11478257194E-04      
 219756.1643300              0.89234299775E-04      
  50010.7703010              0.46911086186E-03      
  14164.8239180              0.19762446133E-02      
   4620.7465525              0.71419937783E-02      
   1667.8991635              0.22753219445E-01      
    650.29199265             0.63959782953E-01      
    269.38037376             0.15331059238    
    117.06752106             0.28986952417    
     52.811766843            0.36348071452    
S   3   1.00
    461.42769988             0.18019457578E-01      
    142.12665355             0.16489442314    
     54.437838768            0.63891587584    
S   1   1.00
     24.160770219            1.0000000        
S   1   1.00
      9.7083540306           1.0000000        
S   1   1.00
      4.5640696733           1.0000000        
S   1   1.00
      2.1194744832           1.0000000        
S   1   1.00
      0.75722365394          1.0000000        
S   1   1.00
      0.33747224597          1.0000000        
S   1   1.00
      0.13860775149          1.0000000        
P   8   1.00
   2501.9457890              0.24242618410E-03      
    592.88059285             0.21079961749E-02      
    192.18089186             0.11432693869E-01      
     72.875710488            0.44956698060E-01      
     30.436358370            0.13197476145    
     13.490178902            0.27493639225    
      6.1478071413           0.38347236372    
      2.8450944820           0.28871943885    
P   2   1.00
    105.39397936            -0.34311760144E-01      
      6.7369738513           0.64060818902    
P   1   1.00
      1.2421095772           1.0000000        
P   1   1.00
      0.55669714254          1.0000000        
P   1   1.00
      0.23387801464          1.0000000        
P   1   1.00
      0.93164490890E-01            1.0000000        
D   1   1.00
      5.19100000             1.0000000        
D   1   1.00
      1.27600000             1.0000000        
D   1   1.00
      0.583000000            1.0000000        
D   1   1.00
      0.243000000            1.0000000        
F   1   1.00
      0.423000000            1.0000000        
F   1   1.00
      1.08900000             1.0000000        
G   1   1.00
      0.827000000            1.0000000        
****
$end


# Specify <MacroPath> to be used in the batch
__macro_path__  ::
<PATH1> = '.'

# The molecular set to batch: 
#              95 is the total number of jobs in this batch list
__batch__ :: 95
#  "Flag"         "DIR"                               "InpName"       "JobType"
         c2h4    <PATH1>/BH76                         c2h4.in         energy
         c2h5    <PATH1>/BH76                         c2h5.in         energy
         C2H5    <PATH1>/BH76                         C2H5.in         energy
       c2h5ts    <PATH1>/BH76                       c2h5ts.in         energy
         C2H6    <PATH1>/BH76                         C2H6.in         energy
         c3h7    <PATH1>/BH76                         c3h7.in         energy
       c3h7ts    <PATH1>/BH76                       c3h7ts.in         energy
         C5H8    <PATH1>/BH76                         C5H8.in         energy
        CH2OH    <PATH1>/BH76                        CH2OH.in         energy
        ch3cl    <PATH1>/BH76                        ch3cl.in         energy
          ch3    <PATH1>/BH76                          ch3.in         energy
          CH3    <PATH1>/BH76                          CH3.in         energy
     ch3fclts    <PATH1>/BH76                     ch3fclts.in         energy
         ch3f    <PATH1>/BH76                         ch3f.in         energy
        ch3oh    <PATH1>/BH76                        ch3oh.in         energy
        CH3OH    <PATH1>/BH76                        CH3OH.in         energy
          CH4    <PATH1>/BH76                          CH4.in         energy
  clch3clcomp    <PATH1>/BH76                  clch3clcomp.in         energy
    clch3clts    <PATH1>/BH76                    clch3clts.in         energy
          cl-    <PATH1>/BH76                          cl-.in         energy
           cl    <PATH1>/BH76                           cl.in         energy
           Cl    <PATH1>/BH76                           Cl.in         energy
       clf2ts    <PATH1>/BH76                       clf2ts.in         energy
          clf    <PATH1>/BH76                          clf.in         energy
           co    <PATH1>/BH76                           co.in         energy
           f2    <PATH1>/BH76                           f2.in         energy
  fch3clcomp1    <PATH1>/BH76                  fch3clcomp1.in         energy
  fch3clcomp2    <PATH1>/BH76                  fch3clcomp2.in         energy
     fch3clts    <PATH1>/BH76                     fch3clts.in         energy
    fch3fcomp    <PATH1>/BH76                    fch3fcomp.in         energy
      fch3fts    <PATH1>/BH76                      fch3fts.in         energy
           f-    <PATH1>/BH76                           f-.in         energy
            f    <PATH1>/BH76                            f.in         energy
            F    <PATH1>/BH76                            F.in         energy
           H2    <PATH1>/BH76                           H2.in         energy
          H2O    <PATH1>/BH76                          H2O.in         energy
          H2S    <PATH1>/BH76                          H2S.in         energy
     hch3clts    <PATH1>/BH76                     hch3clts.in         energy
          hcl    <PATH1>/BH76                          hcl.in         energy
          HCl    <PATH1>/BH76                          HCl.in         energy
       hclhts    <PATH1>/BH76                       hclhts.in         energy
          hcn    <PATH1>/BH76                          hcn.in         energy
        hcnts    <PATH1>/BH76                        hcnts.in         energy
          hco    <PATH1>/BH76                          hco.in         energy
            h    <PATH1>/BH76                            h.in         energy
            H    <PATH1>/BH76                            H.in         energy
        hcots    <PATH1>/BH76                        hcots.in         energy
        hf2ts    <PATH1>/BH76                        hf2ts.in         energy
      hfch3ts    <PATH1>/BH76                      hfch3ts.in         energy
           hf    <PATH1>/BH76                           hf.in         energy
           HF    <PATH1>/BH76                           HF.in         energy
        hfhts    <PATH1>/BH76                        hfhts.in         energy
          hn2    <PATH1>/BH76                          hn2.in         energy
        hn2ts    <PATH1>/BH76                        hn2ts.in         energy
          hnc    <PATH1>/BH76                          hnc.in         energy
  hoch3fcomp1    <PATH1>/BH76                  hoch3fcomp1.in         energy
  hoch3fcomp2    <PATH1>/BH76                  hoch3fcomp2.in         energy
     hoch3fts    <PATH1>/BH76                     hoch3fts.in         energy
           HS    <PATH1>/BH76                           HS.in         energy
           n2    <PATH1>/BH76                           n2.in         energy
         N2H2    <PATH1>/BH76                         N2H2.in         energy
          N2H    <PATH1>/BH76                          N2H.in         energy
          n2o    <PATH1>/BH76                          n2o.in         energy
       n2ohts    <PATH1>/BH76                       n2ohts.in         energy
          NH2    <PATH1>/BH76                          NH2.in         energy
          NH3    <PATH1>/BH76                          NH3.in         energy
           NH    <PATH1>/BH76                           NH.in         energy
            O    <PATH1>/BH76                            O.in         energy
          oh-    <PATH1>/BH76                          oh-.in         energy
           oh    <PATH1>/BH76                           oh.in         energy
           OH    <PATH1>/BH76                           OH.in         energy
          PH2    <PATH1>/BH76                          PH2.in         energy
          PH3    <PATH1>/BH76                          PH3.in         energy
        RKT01    <PATH1>/BH76                        RKT01.in         energy
        RKT02    <PATH1>/BH76                        RKT02.in         energy
        RKT03    <PATH1>/BH76                        RKT03.in         energy
        RKT04    <PATH1>/BH76                        RKT04.in         energy
        RKT05    <PATH1>/BH76                        RKT05.in         energy
        RKT06    <PATH1>/BH76                        RKT06.in         energy
        RKT07    <PATH1>/BH76                        RKT07.in         energy
        RKT08    <PATH1>/BH76                        RKT08.in         energy
        RKT09    <PATH1>/BH76                        RKT09.in         energy
        RKT10    <PATH1>/BH76                        RKT10.in         energy
        RKT11    <PATH1>/BH76                        RKT11.in         energy
        RKT12    <PATH1>/BH76                        RKT12.in         energy
        RKT13    <PATH1>/BH76                        RKT13.in         energy
        RKT14    <PATH1>/BH76                        RKT14.in         energy
        RKT15    <PATH1>/BH76                        RKT15.in         energy
        RKT16    <PATH1>/BH76                        RKT16.in         energy
        RKT17    <PATH1>/BH76                        RKT17.in         energy
        RKT18    <PATH1>/BH76                        RKT18.in         energy
        RKT19    <PATH1>/BH76                        RKT19.in         energy
        RKT20    <PATH1>/BH76                        RKT20.in         energy
        RKT21    <PATH1>/BH76                        RKT21.in         energy
        RKT22    <PATH1>/BH76                        RKT22.in         energy



# Training set for the atomization energy
#              106 is the total number of the energy testing data
#           627.51 is the scale factor from "a.u." to "kcal/mol", 
__energy__ :: 106  627.51
#"Number"    "Flag" "Scale"                                                    "Ref"      "Weight"
  3              h    -1           n2o    -1    n2ohts      1                  18.14      1.0000
  3             oh    -1            n2    -1    n2ohts      1                  83.22      1.0000
  3              h    -1            hf    -1    hfhts       1                  42.18      1.0000
  3             hf    -1             h    -1    hfhts       1                  42.18      1.0000
  3              h    -1           hcl    -1    hclhts      1                  18.00      1.0000
  3            hcl    -1             h    -1    hclhts      1                  18.00      1.0000
  3              h    -1          ch3f    -1    hfch3ts     1                  30.38      1.0000
  3             hf    -1           ch3    -1    hfch3ts     1                  57.02      1.0000
  3              h    -1            f2    -1    hf2ts       1                   2.27      1.0000
  3             hf    -1             f    -1    hf2ts       1                 106.18      1.0000
  3            ch3    -1           clf    -1    ch3fclts    1                   7.43      1.0000
  3           ch3f    -1            cl    -1    ch3fclts    1                  60.17      1.0000
  3             f-    -1          ch3f    -1    fch3fts     1                  -0.34      1.0000
  3           ch3f    -1            f-    -1    fch3fts     1                  -0.34      1.0000
  2      fch3fcomp    -1       fch3fts     1                                   13.38      1.0000
  2      fch3fcomp    -1       fch3fts     1                                   13.38      1.0000
  3            cl-    -1         ch3cl    -1    clch3clts   1                   3.10      1.0000
  3          ch3cl    -1           cl-    -1    clch3clts   1                   3.10      1.0000
  2    clch3clcomp    -1     clch3clts     1                                   13.61      1.0000
  2    clch3clcomp    -1     clch3clts     1                                   13.61      1.0000
  3             f-    -1         ch3cl    -1    fch3clts    1                 -12.54      1.0000
  3            cl-    -1          ch3f    -1    fch3clts    1                  20.11      1.0000
  2    fch3clcomp1    -1      fch3clts     1                                    2.89      1.0000
  2    fch3clcomp2    -1      fch3clts     1                                   29.62      1.0000
  3            oh-    -1          ch3f    -1    hoch3fts    1                  -2.78      1.0000
  3          ch3oh    -1            f-    -1    hoch3fts    1                  17.33      1.0000
  2    hoch3fcomp2    -1      hoch3fts     1                                   10.96      1.0000
  2    hoch3fcomp1    -1      hoch3fts     1                                   47.20      1.0000
  3              h    -1            n2    -1    hn2ts       1                  14.69      1.0000
  2            hn2    -1         hn2ts     1                                   10.72      1.0000
  3              h    -1            co    -1    hcots       1                   3.17      1.0000
  2            hco    -1         hcots     1                                   22.68      1.0000
  3              h    -1          c2h4    -1    c2h5ts      1                   1.72      1.0000
  2           c2h5    -1        c2h5ts     1                                   41.75      1.0000
  3            ch3    -1          c2h4    -1    c3h7ts      1                   6.85      1.0000
  2           c3h7    -1        c3h7ts     1                                   32.97      1.0000
  2            hcn    -1         hcnts     1                                   48.16      1.0000
  2            hnc    -1         hcnts     1                                   33.11      1.0000
  3              H    -1           HCl    -1    RKT01       1                   5.70      1.0000
  3             H2    -1            Cl    -1    RKT01       1                   8.70      1.0000
  3             OH    -1            H2    -1    RKT02       1                   5.10      1.0000
  3            H2O    -1             H    -1    RKT02       1                  21.20      1.0000
  3            CH3    -1            H2    -1    RKT03       1                  12.10      1.0000
  3            CH4    -1             H    -1    RKT03       1                  15.30      1.0000
  3             OH    -1           CH4    -1    RKT04       1                   6.70      1.0000
  3            H2O    -1           CH3    -1    RKT04       1                  19.60      1.0000
  3              H    -1            H2    -1    RKT06       1                   9.60      1.0000
  3              H    -1            H2    -1    RKT06       1                   9.60      1.0000
  3             OH    -1           NH3    -1    RKT07       1                   3.20      1.0000
  3            H2O    -1           NH2    -1    RKT07       1                  12.70      1.0000
  3            HCl    -1           CH3    -1    RKT08       1                   1.70      1.0000
  3             Cl    -1           CH4    -1    RKT08       1                   7.90      1.0000
  3             OH    -1          C2H6    -1    RKT09       1                   3.40      1.0000
  3            H2O    -1          C2H5    -1    RKT09       1                  19.90      1.0000
  3              F    -1            H2    -1    RKT10       1                   1.80      1.0000
  3             HF    -1             H    -1    RKT10       1                  33.40      1.0000
  3              O    -1           CH4    -1    RKT11       1                  13.70      1.0000
  3             OH    -1           CH3    -1    RKT11       1                   8.10      1.0000
  3              H    -1           PH3    -1    RKT12       1                   3.10      1.0000
  3             H2    -1           PH2    -1    RKT12       1                  23.20      1.0000
  3              H    -1            OH    -1    RKT14       1                  10.70      1.0000
  3             H2    -1             O    -1    RKT14       1                  13.10      1.0000
  3              H    -1           H2S    -1    RKT16       1                   3.50      1.0000
  3             H2    -1            HS    -1    RKT16       1                  17.30      1.0000
  3              O    -1           HCl    -1    RKT17       1                   9.80      1.0000
  3             OH    -1            Cl    -1    RKT17       1                  10.40      1.0000
  3            NH2    -1           CH3    -1    RKT18       1                   8.00      1.0000