# The project environment :
#     "ProjDir" specifying the storage DIR of this project
#     "ProjCtrl" = 0 : to run all the jobs
#           = 1 : to fetch result from existed log and chk files
#           = 2 : to run the job without corresponding log or chk files
#       "ProjTool" = "Gaussian" : to run jobs using Gaussian package (default)
#                  = "QChem"    : to run jobs using Q-Chem package
#                "ProjDir"       "ProjCtrl"      "ProjTool"
__project__ ::   ./BHPERI           2            QChem 

# The project description
__title__ ::
"============================== BHPERI set ============================="
"        This is BHPERI subset from GMTKN30 proposed by Grimme          "
"        def2-QZVP is used here                                         "

# $rem group of Q-Chem Package
__qchem__ ::  1 rmp2  # 0 for serial version Q-Chem and 1 for parallel version Q-Chem
$rem
mem_static      = 200
mem_total       = 7500
exchange        = b3lyp
basis           = gen
max_scf_cycles  = 50
scf_convergence = 7
symmetry        = false
xc_grid         = 000075000302
$end
$basis
H     0 
S   4   1.00
    190.6916900              0.70815167E-03   
     28.6055320              0.54678827E-02   
      6.5095943              0.27966605E-01   
      1.8412455              0.10764538       
S   1   1.00
      0.59853725             1.0000000        
S   1   1.00
      0.21397624             1.0000000        
S   1   1.00
      0.80316286E-01         1.0000000        
P   1   1.00
      2.29200000             1.0000000        
P   1   1.00
      0.83800000             1.0000000        
P   1   1.00
      0.29200000             1.0000000        
D   1   1.00
      2.06200000             1.0000000        
D   1   1.00
      0.66200000             1.0000000        
F   1   1.00
      1.39700000             1.0000000        
****
C     0 
S   8   1.00
  67025.0710290              0.38736308501E-04      
  10039.9865380              0.30107917575E-03      
   2284.9316911              0.15787918095E-02      
    647.14122130             0.66087087195E-02      
    211.09472335             0.23367123250E-01      
     76.177643862            0.70420716898E-01      
     29.633839163            0.17360344953    
     12.187785081            0.32292305648    
S   2   1.00
     53.026006299            0.74897404492E-01      
     15.258502776            0.76136220983    
S   1   1.00
      5.2403957464           1.0000000        
S   1   1.00
      2.2905022379           1.0000000        
S   1   1.00
      0.69673283006          1.0000000        
S   1   1.00
      0.27599337363          1.0000000        
S   1   1.00
      0.10739884389          1.0000000        
P   5   1.00
    105.12555082             0.84647553844E-03      
     24.884461066            0.66274038534E-02      
      7.8637230826           0.30120390419E-01      
      2.8407001835           0.99951435476E-01      
      1.1227137335           0.23826299282    
P   1   1.00
      0.46050725555          1.0000000        
P   1   1.00
      0.18937530913          1.0000000        
P   1   1.00
      0.75983791611E-01            1.0000000        
D   1   1.00
      1.84800000             1.0000000        
D   1   1.00
      0.64900000             1.0000000        
D   1   1.00
      0.22800000             1.0000000        
F   1   1.00
      1.41900000             1.0000000        
F   1   1.00
      0.48500000             1.0000000        
G   1   1.00
      1.01100000             1.0000000        
****
N     0 
S   8   1.00
  90726.8892100              0.39257887368E-04      
  13590.5288010              0.30513316455E-03      
   3092.9883781              0.16000560446E-02      
    875.99876362             0.66982937306E-02      
    285.74469982             0.23690078765E-01      
    103.11913417             0.71455405268E-01      
     40.128556777            0.17632774876    
     16.528095704            0.32677592815    
S   2   1.00
     69.390960983            0.80052094386E-01      
     20.428200596            0.78268063538    
S   1   1.00
      7.1292587972           1.0000000        
S   1   1.00
      3.1324304893           1.0000000        
S   1   1.00
      0.98755778723          1.0000000        
S   1   1.00
      0.38765721307          1.0000000        
S   1   1.00
      0.14909883075          1.0000000        
P   5   1.00
    150.05742670            -0.86216165986E-03      
     35.491599483           -0.68571273236E-02      
     11.247864223           -0.31795688855E-01      
      4.0900305195          -0.10537396822    
      1.6220573146          -0.24519708041    
P   1   1.00
      0.66442261530          1.0000000        
P   1   1.00
      0.27099770070          1.0000000        
P   1   1.00
      0.10688749984          1.0000000        
D   1   1.00
      2.83700000             1.0000000        
D   1   1.00
      0.96800000             1.0000000        
D   1   1.00
      0.33500000             1.0000000        
F   1   1.00
      2.02700000             1.0000000        
F   1   1.00
      0.68500000             1.0000000        
G   1   1.00
      1.42700000             1.0000000        
****
O     0 
S   8   1.00
 116506.4690800              0.40383857939E-04      
  17504.3497240              0.31255139004E-03      
   3993.4513230              0.16341473495E-02      
   1133.0063186              0.68283224757E-02      
    369.99569594             0.24124410221E-01      
    133.62074349             0.72730206154E-01      
     52.035643649            0.17934429892    
     21.461939313            0.33059588895    
S   2   1.00
     89.835051252            0.96468652996E-01      
     26.428010844            0.94117481120    
S   1   1.00
      9.2822824649           1.0000000        
S   1   1.00
      4.0947728533           1.0000000        
S   1   1.00
      1.3255349078           1.0000000        
S   1   1.00
      0.51877230787          1.0000000        
S   1   1.00
      0.19772676454          1.0000000        
P   5   1.00
    191.15255810             0.25115697705E-02      
     45.233356739            0.20039240864E-01      
     14.353465922            0.93609064762E-01      
      5.2422371832           0.30618127124    
      2.0792418599           0.67810501439    
P   1   1.00
      0.84282371424          1.0000000        
P   1   1.00
      0.33617694891          1.0000000        
P   1   1.00
      0.12863997974          1.0000000        
D   1   1.00
      3.77500000             1.0000000        
D   1   1.00
      1.30000000             1.0000000        
D   1   1.00
      0.44400000             1.0000000        
F   1   1.00
      2.66600000             1.0000000        
F   1   1.00
      0.85900000             1.0000000        
G   1   1.00
      1.84600000             1.0000000        
****
Si     0 
S   10   1.00
 918070.6956500              0.12658787192E-04      
 137485.2538600              0.98408387461E-04      
  31287.7727140              0.51731398244E-03      
   8861.6105697              0.21785441933E-02      
   2890.6943156              0.78656853716E-02      
   1043.4063979              0.24987553674E-01      
    406.80160276             0.69761818844E-01      
    168.48360207             0.16473362733    
     73.185628823            0.30285602647    
     32.998485420            0.36007260439    
S   3   1.00
    278.78751325             0.20185463814E-01      
     85.910228722            0.17720406747    
     32.992604031            0.63587860906    
S   1   1.00
     15.033693254            1.0000000        
S   1   1.00
      5.7257514773           1.0000000        
S   1   1.00
      2.6146521029           1.0000000        
S   1   1.00
      1.1757833152           1.0000000        
S   1   1.00
      0.35432330868          1.0000000        
S   1   1.00
      0.16248335806          1.0000000        
S   1   1.00
      0.68332457181E-01            1.0000000        
P   8   1.00
   1775.8850516              0.20186971126E-03      
    420.83786849             0.17544314655E-02      
    136.42290243             0.95039532290E-02      
     51.700991737            0.37325741590E-01      
     21.559456002            0.11085396329    
      9.5559200095           0.23756407046    
      4.3529819473           0.35295783750    
      2.0096964381           0.32885931947    
P   2   1.00
     46.418153780            0.25858819154E-01      
      1.9076417796          -0.59874865899    
P   1   1.00
      0.92337221587          1.0000000        
P   1   1.00
      0.34515720370          1.0000000        
P   1   1.00
      0.13656834761          1.0000000        
P   1   1.00
      0.52987060586E-01            1.0000000        
D   1   1.00
      2.64500000             1.0000000        
D   1   1.00
      0.608000000            1.0000000        
D   1   1.00
      0.272000000            1.0000000        
D   1   1.00
      0.113000000            1.0000000        
F   1   1.00
      0.212000000            1.0000000        
F   1   1.00
      0.541000000            1.0000000        
G   1   1.00
      0.461000000            1.0000000        
****
P     0 
S   10   1.00
 1090561.7138000             0.12142449664E-04      
 163316.3946100              0.94395292614E-04      
  37166.6074510              0.49622262177E-03      
  10526.8809450              0.20900040747E-02      
   3433.9976028              0.75489230025E-02      
   1239.5360480              0.24010423937E-01      
    483.27456199             0.67231473697E-01      
    200.16911586             0.15978669881    
     86.960394829            0.29735906782    
     39.211283369            0.36187171850    
S   3   1.00
    336.75883662             0.19154721050E-01      
    103.72179793             0.17134079100    
     39.771861240            0.63689655985    
S   1   1.00
     17.888612952            1.0000000        
S   1   1.00
      6.9644556879           1.0000000        
S   1   1.00
      3.2198092087           1.0000000        
S   1   1.00
      1.4669943979           1.0000000        
S   1   1.00
      0.47765437532          1.0000000        
S   1   1.00
      0.21637789241          1.0000000        
S   1   1.00
      0.90235894336E-01            1.0000000        
P   8   1.00
   2019.6711374              0.21359172406E-03      
    478.60125090             0.18568771399E-02      
    155.14942504             0.10070690115E-01      
     58.816356575            0.39605153679E-01      
     24.544512785            0.11736067844    
     10.883571061            0.24950540642    
      4.9624791285           0.36421287984    
      2.3002912343           0.31764127123    
P   2   1.00
     59.371345016            0.39432918004    
      3.0694590986          -6.3522960431     
P   1   1.00
      1.0634401739           1.0000000        
P   1   1.00
      0.45022152161          1.0000000        
P   1   1.00
      0.18267271344          1.0000000        
P   1   1.00
      0.71610333771E-01            1.0000000        
D   1   1.00
      3.34300000             1.0000000        
D   1   1.00
      0.807000000            1.0000000        
D   1   1.00
      0.365000000            1.0000000        
D   1   1.00
      0.154000000            1.0000000        
F   1   1.00
      0.280000000            1.0000000        
F   1   1.00
      0.703000000            1.0000000        
G   1   1.00
      0.597000000            1.0000000        
****
S     0 
S   10   1.00
 1273410.9023000             0.11767088246E-04      
 190697.8300700              0.91478610166E-04      
  43397.8853300              0.48090078640E-03      
  12291.8096770              0.20257193592E-02      
   4009.7420824              0.73190096406E-02      
   1447.3531030              0.23300499900E-01      
    564.30102913             0.65386213610E-01      
    233.74506243             0.15614449910    
    101.56402814             0.29318563787    
     45.805907187            0.36287914289    
S   3   1.00
    394.27281503             0.18753305081E-01      
    121.72249591             0.16870726663    
     46.754125963            0.63806830653    
S   1   1.00
     20.923008254            1.0000000        
S   1   1.00
      8.2685567800           1.0000000        
S   1   1.00
      3.8629345671           1.0000000        
S   1   1.00
      1.7794684781           1.0000000        
S   1   1.00
      0.61064260103          1.0000000        
S   1   1.00
      0.27412269445          1.0000000        
S   1   1.00
      0.11325939107          1.0000000        
P   8   1.00
   2189.8930459              0.23912552864E-03      
    518.94596592             0.20772032158E-02      
    168.19560151             0.11242420571E-01      
     63.745282788            0.44069933941E-01      
     26.597033077            0.12918778608    
     11.774251449            0.26910820167    
      5.3534379024           0.37855928620    
      2.4701911802           0.29692134655    
P   2   1.00
     82.120288349           -0.39420318847E-01      
      4.9523532869           0.64048403090    
P   1   1.00
      1.0828262029           1.0000000        
P   1   1.00
      0.49271277356          1.0000000        
P   1   1.00
      0.20483450942          1.0000000        
P   1   1.00
      0.80743615716E-01            1.0000000        
D   1   1.00
      4.15900000             1.0000000        
D   1   1.00
      1.01900000             1.0000000        
D   1   1.00
      0.464000000            1.0000000        
D   1   1.00
      0.194000000            1.0000000        
F   1   1.00
      0.335000000            1.0000000        
F   1   1.00
      0.869000000            1.0000000        
G   1   1.00
      0.683000000            1.0000000        
****
$end



# Specify <MacroPath> to be used in the batch
__macro_path__  ::
<PATH1> = '.'

# The molecular set to batch: 
#                61 is the total number of jobs in this batch list
__batch__ :: 61
#                        "Flag"         "DIR"                                    "InpName"       "JobType"
                           00r          <PATH1>/BHPERI                            00r.in         energy
                           01r          <PATH1>/BHPERI                            01r.in         energy
                          01ts          <PATH1>/BHPERI                           01ts.in         energy
                           02r          <PATH1>/BHPERI                            02r.in         energy
                          02ts          <PATH1>/BHPERI                           02ts.in         energy
                           03r          <PATH1>/BHPERI                            03r.in         energy
                          03ts          <PATH1>/BHPERI                           03ts.in         energy
                           04r          <PATH1>/BHPERI                            04r.in         energy
                          04ts          <PATH1>/BHPERI                           04ts.in         energy
                           05r          <PATH1>/BHPERI                            05r.in         energy
                          05ts          <PATH1>/BHPERI                           05ts.in         energy
                          06ts          <PATH1>/BHPERI                           06ts.in         energy
                           07r          <PATH1>/BHPERI                            07r.in         energy
                          07ts          <PATH1>/BHPERI                           07ts.in         energy
                          08ts          <PATH1>/BHPERI                           08ts.in         energy
                           09r          <PATH1>/BHPERI                            09r.in         energy
                          09ts          <PATH1>/BHPERI                           09ts.in         energy
                 1_3-Butadiene          <PATH1>/BHPERI                  1_3-Butadiene.in         energy
                       13_c2h4          <PATH1>/BHPERI                        13_c2h4.in         energy
            1_3-Cyclohexadiene          <PATH1>/BHPERI             1_3-Cyclohexadiene.in         energy
           1_3-Cyclopentadiene          <PATH1>/BHPERI            1_3-Cyclopentadiene.in         energy
                1_3-Pentadiene          <PATH1>/BHPERI                 1_3-Pentadiene.in         energy
                         13r_1          <PATH1>/BHPERI                          13r_1.in         energy
                         13r_2          <PATH1>/BHPERI                          13r_2.in         energy
                         13r_3          <PATH1>/BHPERI                          13r_3.in         energy
                         13r_4          <PATH1>/BHPERI                          13r_4.in         energy
                         13r_5          <PATH1>/BHPERI                          13r_5.in         energy
                         13r_6          <PATH1>/BHPERI                          13r_6.in         energy
                         13r_7          <PATH1>/BHPERI                          13r_7.in         energy
                         13r_8          <PATH1>/BHPERI                          13r_8.in         energy
                         13r_9          <PATH1>/BHPERI                          13r_9.in         energy
                       13ts_1a          <PATH1>/BHPERI                        13ts_1a.in         energy
                       13ts_2a          <PATH1>/BHPERI                        13ts_2a.in         energy
                       13ts_3a          <PATH1>/BHPERI                        13ts_3a.in         energy
                       13ts_4a          <PATH1>/BHPERI                        13ts_4a.in         energy
                       13ts_5a          <PATH1>/BHPERI                        13ts_5a.in         energy
                       13ts_6a          <PATH1>/BHPERI                        13ts_6a.in         energy
                       13ts_7a          <PATH1>/BHPERI                        13ts_7a.in         energy
                       13ts_8a          <PATH1>/BHPERI                        13ts_8a.in         energy
                       13ts_9a          <PATH1>/BHPERI                        13ts_9a.in         energy
                 1_5-Hexadiene          <PATH1>/BHPERI                  1_5-Hexadiene.in         energy
              Benzocyclobutane          <PATH1>/BHPERI               Benzocyclobutane.in         energy
          cis-1_3_5-Hexatriene          <PATH1>/BHPERI           cis-1_3_5-Hexatriene.in         energy
 Cis-triscyclopropacyclohexane          <PATH1>/BHPERI  Cis-triscyclopropacyclohexane.in         energy
                   Cyclobutene          <PATH1>/BHPERI                    Cyclobutene.in         energy
                   Cyclohexene          <PATH1>/BHPERI                    Cyclohexene.in         energy
        Cyclonona-1_4_7-triene          <PATH1>/BHPERI         Cyclonona-1_4_7-triene.in         energy
                      Ethylene          <PATH1>/BHPERI                       Ethylene.in         energy
                    Norbornene          <PATH1>/BHPERI                     Norbornene.in         energy
                ortho-xylylene          <PATH1>/BHPERI                 ortho-xylylene.in         energy
                          TS10          <PATH1>/BHPERI                           TS10.in         energy
                          TS11          <PATH1>/BHPERI                           TS11.in         energy
                           TS1          <PATH1>/BHPERI                            TS1.in         energy
                           TS2          <PATH1>/BHPERI                            TS2.in         energy
                           TS3          <PATH1>/BHPERI                            TS3.in         energy
                           TS4          <PATH1>/BHPERI                            TS4.in         energy
                           TS5          <PATH1>/BHPERI                            TS5.in         energy
                           TS6          <PATH1>/BHPERI                            TS6.in         energy
                           TS7          <PATH1>/BHPERI                            TS7.in         energy
                           TS8          <PATH1>/BHPERI                            TS8.in         energy
                           TS9          <PATH1>/BHPERI                            TS9.in         energy


# Training set for the atomization energy
#               26 is the total number of the energy testing data
#           627.51 is the scale factor from "a.u." to "kcal/mol", 
__energy__ :: 26  627.51
#"Number" "Flag"                         "Scale"                                     "Ref"      "Weight"
  2       Cyclobutene                       -1   TS1         1                        35.34000  1.000 
  2       cis-1_3_5-Hexatriene              -1   TS2         1                        30.92000  1.000 
  2       ortho-xylylene                    -1   TS3         1                        28.30000  1.000 
  2       1_3-Pentadiene                    -1   TS4         1                        39.56000  1.000 
  2       1_3-Cyclopentadiene               -1   TS5         1                        28.18000  1.000 
  2       1_5-Hexadiene                     -1   TS6         1                        35.64000  1.000 
  3       1_3-Butadiene                     -1   Ethylene   -1     TS7          1     22.14000  1.000 
  3       1_3-Cyclopentadiene               -1   Ethylene   -1     TS8          1     18.26000  1.000 
  2       1_3-Cyclopentadiene               -2   TS11        1                        9.800000  1.000 
  2       Cis-triscyclopropacyclohexane     -1   TS9         1                        23.55000  1.000 
  3       13r_1                             -1   13_c2h4    -1    13ts_1a       1     26.30000  1.000 
  3       13r_2                             -1   13_c2h4    -1    13ts_2a       1     18.10000  1.000 
  3       13r_3                             -1   13_c2h4    -1    13ts_3a       1     12.20000  1.000 
  3       13r_4                             -1   13_c2h4    -1    13ts_4a       1     11.10000  1.000 
  3       13r_5                             -1   13_c2h4    -1    13ts_5a       1     5.300000  1.000 
  3       13r_6                             -1   13_c2h4    -1    13ts_6a       1     4.000000  1.000 
  3       13r_7                             -1   13_c2h4    -1    13ts_7a       1     11.50000  1.000 
  3       13r_8                             -1   13_c2h4    -1    13ts_8a       1     4.000000  1.000 
  3       13r_9                             -1   13_c2h4    -1    13ts_9a       1     -1.40000  1.000 
  3       02r                               -1   00r        -1    02ts          1     14.98367  1.000 
  3       03r                               -1   00r        -1    03ts          1     13.52973  1.000 
  3       04r                               -1   00r        -1    04ts          1     19.80797  1.000 
  3       05r                               -1   00r        -1    06ts          1     25.35452  1.000 
  3       07r                               -1   00r        -1    07ts          1     18.10114  1.000 
  3       07r                               -1   00r        -1    08ts          1     18.19276  1.000 
  3       09r                               -1   00r        -1    09ts          1     28.07415  1.000 

