# The project environment :
#     "ProjDir" specifying the storage DIR of this project
#     "ProjCtrl" = 0 : to run all the jobs
#           = 1 : to fetch result from existed log and chk files
#           = 2 : to run the job without corresponding log or chk files
#       "ProjTool" = "Gaussian" : to run jobs using Gaussian package (default)
#                  = "QChem"    : to run jobs using Q-Chem package
#                "ProjDir"       "ProjCtrl"      "ProjTool"
__project__ ::   ./DC9            2              QChem

# The project description
__title__ ::
"============================== DC9 set ============================="
"        This is DC9 subset from GMTKN30 proposed by Grimme          "
"        def2-QZVP is obtained from EMSL                             "


# $rem group of Q-Chem Package
__qchem__ ::  1 rmp2  # 0 for serial version Q-Chem and 1 for parallel version Q-Chem
$rem
mem_static      = 200
mem_total       = 7500
exchange        = b3lyp
basis           = gen
max_scf_cycles  = 50
scf_convergence = 7
symmetry        = false
xc_grid         = 000075000302                                                               
$end
$basis
H     0 
S   4   1.00
    190.6916900              0.70815167E-03   
     28.6055320              0.54678827E-02   
      6.5095943              0.27966605E-01   
      1.8412455              0.10764538       
S   1   1.00
      0.59853725             1.0000000        
S   1   1.00
      0.21397624             1.0000000        
S   1   1.00
      0.80316286E-01         1.0000000        
P   1   1.00
      2.29200000             1.0000000        
P   1   1.00
      0.83800000             1.0000000        
P   1   1.00
      0.29200000             1.0000000        
D   1   1.00
      2.06200000             1.0000000        
D   1   1.00
      0.66200000             1.0000000        
F   1   1.00
      1.39700000             1.0000000        
****
Be     0 
S   8   1.00
  29646.7044070              0.37943320869E-04      
   4428.7614354              0.29605352634E-03      
   1005.4701332              0.15572477356E-02      
    284.15339578             0.65323195769E-02      
     92.504356461            0.23116861005E-01      
     33.311016058            0.69458515249E-01      
     12.911553314            0.17014371331    
      5.2665497361           0.31682711374    
S   2   1.00
     22.995386380            0.81791122747E-01      
      6.6236354176           0.80000038023    
S   1   1.00
      2.2289595003           1.0000000        
S   1   1.00
      0.95302433451          1.0000000        
S   1   1.00
      0.24651602436          1.0000000        
S   1   1.00
      0.10153895315          1.0000000        
S   1   1.00
      0.41551374604E-01            1.0000000        
P   4   1.00
     14.099789445            0.38508871145E-02      
      3.1803188482           0.24152380771E-01      
      0.90489220496          0.97926925156E-01      
      0.30411585508          0.29470380030    
P   1   1.00
      0.11302606657          1.0000000        
P   1   1.00
      0.42831733691E-01            1.0000000        
P   1   1.00
      6.4000000              1.0000000        
D   1   1.00
      0.3600000              1.0000000        
D   1   1.00
      0.0900000              1.0000000        
F   1   1.00
      0.2900000              1.0000000        
****
C     0 
S   8   1.00
  67025.0710290              0.38736308501E-04      
  10039.9865380              0.30107917575E-03      
   2284.9316911              0.15787918095E-02      
    647.14122130             0.66087087195E-02      
    211.09472335             0.23367123250E-01      
     76.177643862            0.70420716898E-01      
     29.633839163            0.17360344953    
     12.187785081            0.32292305648    
S   2   1.00
     53.026006299            0.74897404492E-01      
     15.258502776            0.76136220983    
S   1   1.00
      5.2403957464           1.0000000        
S   1   1.00
      2.2905022379           1.0000000        
S   1   1.00
      0.69673283006          1.0000000        
S   1   1.00
      0.27599337363          1.0000000        
S   1   1.00
      0.10739884389          1.0000000        
P   5   1.00
    105.12555082             0.84647553844E-03      
     24.884461066            0.66274038534E-02      
      7.8637230826           0.30120390419E-01      
      2.8407001835           0.99951435476E-01      
      1.1227137335           0.23826299282    
P   1   1.00
      0.46050725555          1.0000000        
P   1   1.00
      0.18937530913          1.0000000        
P   1   1.00
      0.75983791611E-01            1.0000000        
D   1   1.00
      1.84800000             1.0000000        
D   1   1.00
      0.64900000             1.0000000        
D   1   1.00
      0.22800000             1.0000000        
F   1   1.00
      1.41900000             1.0000000        
F   1   1.00
      0.48500000             1.0000000        
G   1   1.00
      1.01100000             1.0000000        
****
N     0 
S   8   1.00
  90726.8892100              0.39257887368E-04      
  13590.5288010              0.30513316455E-03      
   3092.9883781              0.16000560446E-02      
    875.99876362             0.66982937306E-02      
    285.74469982             0.23690078765E-01      
    103.11913417             0.71455405268E-01      
     40.128556777            0.17632774876    
     16.528095704            0.32677592815    
S   2   1.00
     69.390960983            0.80052094386E-01      
     20.428200596            0.78268063538    
S   1   1.00
      7.1292587972           1.0000000        
S   1   1.00
      3.1324304893           1.0000000        
S   1   1.00
      0.98755778723          1.0000000        
S   1   1.00
      0.38765721307          1.0000000        
S   1   1.00
      0.14909883075          1.0000000        
P   5   1.00
    150.05742670            -0.86216165986E-03      
     35.491599483           -0.68571273236E-02      
     11.247864223           -0.31795688855E-01      
      4.0900305195          -0.10537396822    
      1.6220573146          -0.24519708041    
P   1   1.00
      0.66442261530          1.0000000        
P   1   1.00
      0.27099770070          1.0000000        
P   1   1.00
      0.10688749984          1.0000000        
D   1   1.00
      2.83700000             1.0000000        
D   1   1.00
      0.96800000             1.0000000        
D   1   1.00
      0.33500000             1.0000000        
F   1   1.00
      2.02700000             1.0000000        
F   1   1.00
      0.68500000             1.0000000        
G   1   1.00
      1.42700000             1.0000000        
****
O     0 
S   8   1.00
 116506.4690800              0.40383857939E-04      
  17504.3497240              0.31255139004E-03      
   3993.4513230              0.16341473495E-02      
   1133.0063186              0.68283224757E-02      
    369.99569594             0.24124410221E-01      
    133.62074349             0.72730206154E-01      
     52.035643649            0.17934429892    
     21.461939313            0.33059588895    
S   2   1.00
     89.835051252            0.96468652996E-01      
     26.428010844            0.94117481120    
S   1   1.00
      9.2822824649           1.0000000        
S   1   1.00
      4.0947728533           1.0000000        
S   1   1.00
      1.3255349078           1.0000000        
S   1   1.00
      0.51877230787          1.0000000        
S   1   1.00
      0.19772676454          1.0000000        
P   5   1.00
    191.15255810             0.25115697705E-02      
     45.233356739            0.20039240864E-01      
     14.353465922            0.93609064762E-01      
      5.2422371832           0.30618127124    
      2.0792418599           0.67810501439    
P   1   1.00
      0.84282371424          1.0000000        
P   1   1.00
      0.33617694891          1.0000000        
P   1   1.00
      0.12863997974          1.0000000        
D   1   1.00
      3.77500000             1.0000000        
D   1   1.00
      1.30000000             1.0000000        
D   1   1.00
      0.44400000             1.0000000        
F   1   1.00
      2.66600000             1.0000000        
F   1   1.00
      0.85900000             1.0000000        
G   1   1.00
      1.84600000             1.0000000        
****
S     0 
S   10   1.00
 1273410.9023000             0.11767088246E-04      
 190697.8300700              0.91478610166E-04      
  43397.8853300              0.48090078640E-03      
  12291.8096770              0.20257193592E-02      
   4009.7420824              0.73190096406E-02      
   1447.3531030              0.23300499900E-01      
    564.30102913             0.65386213610E-01      
    233.74506243             0.15614449910    
    101.56402814             0.29318563787    
     45.805907187            0.36287914289    
S   3   1.00
    394.27281503             0.18753305081E-01      
    121.72249591             0.16870726663    
     46.754125963            0.63806830653    
S   1   1.00
     20.923008254            1.0000000        
S   1   1.00
      8.2685567800           1.0000000        
S   1   1.00
      3.8629345671           1.0000000        
S   1   1.00
      1.7794684781           1.0000000        
S   1   1.00
      0.61064260103          1.0000000        
S   1   1.00
      0.27412269445          1.0000000        
S   1   1.00
      0.11325939107          1.0000000        
P   8   1.00
   2189.8930459              0.23912552864E-03      
    518.94596592             0.20772032158E-02      
    168.19560151             0.11242420571E-01      
     63.745282788            0.44069933941E-01      
     26.597033077            0.12918778608    
     11.774251449            0.26910820167    
      5.3534379024           0.37855928620    
      2.4701911802           0.29692134655    
P   2   1.00
     82.120288349           -0.39420318847E-01      
      4.9523532869           0.64048403090    
P   1   1.00
      1.0828262029           1.0000000        
P   1   1.00
      0.49271277356          1.0000000        
P   1   1.00
      0.20483450942          1.0000000        
P   1   1.00
      0.80743615716E-01            1.0000000        
D   1   1.00
      4.15900000             1.0000000        
D   1   1.00
      1.01900000             1.0000000        
D   1   1.00
      0.464000000            1.0000000        
D   1   1.00
      0.194000000            1.0000000        
F   1   1.00
      0.335000000            1.0000000        
F   1   1.00
      0.869000000            1.0000000        
G   1   1.00
      0.683000000            1.0000000        
****
$end


# Specify <MacroPath> to be used in the batch
__macro_path__  ::
<PATH1> = '.'

# The molecular set to batch: 
#              19 is the total number of jobs in this batch list
__batch__ :: 19
#  "Flag"         "DIR"                               "InpName"       "JobType"
        13dip     <PATH1>/DC9                         13dip.in        energy
          be4     <PATH1>/DC9                           be4.in        energy
           be     <PATH1>/DC9                            be.in        energy
      c20bowl     <PATH1>/DC9                       c20bowl.in        energy
      c20cage     <PATH1>/DC9                       c20cage.in        energy
    carbooxo1     <PATH1>/DC9                     carbooxo1.in        energy
    carbooxo2     <PATH1>/DC9                     carbooxo2.in        energy
        ch2n2     <PATH1>/DC9                         ch2n2.in        energy
        ethen     <PATH1>/DC9                         ethen.in        energy
 heptahexaene     <PATH1>/DC9                  heptahexaene.in        energy
  heptatriyne     <PATH1>/DC9                   heptatriyne.in        energy
      ISO_E35     <PATH1>/DC9                       ISO_E35.in        energy
      ISO_E36     <PATH1>/DC9                       ISO_E36.in        energy
      ISO_P35     <PATH1>/DC9                       ISO_P35.in        energy
      ISO_P36     <PATH1>/DC9                       ISO_P36.in        energy
         omcb     <PATH1>/DC9                          omcb.in        energy
           s2     <PATH1>/DC9                            s2.in        energy
           s8     <PATH1>/DC9                            s8.in        energy
      tmethen     <PATH1>/DC9                       tmethen.in        energy



# Training set for the atomization energy
#               9 is the total number of the energy testing data
#           627.51 is the scale factor from "a.u." to "kcal/mol", 
__energy__ :: 9  627.51
#"Number" "Flag" "Scale"                                          "Ref"      "Weight"
  2        ISO_E36     1          ISO_P36     -1                   -1.0       1.0000
  2        c20cage    -1          c20bowl      1                  -13.3       1.0000
  2    heptatriyne     1     heptahexaene     -1                  -14.3       1.0000
  2        tmethen    -2             omcb      1                  -19.2       1.0000
  2        ISO_E35     1          ISO_P35     -1                  -19.5       1.0000
  2      carbooxo2    -1        carbooxo1      1                  -26.9       1.0000
  3          ethen    -1            ch2n2     -1     13dip    1   -38.1       1.0000
  2            be4     1               be     -4                  -88.4       1.0000
  2             s2    -4               s8      1                 -101.0       1.0000
