# The project environment :
#     "ProjDir" specifying the storage DIR of this project
#     "ProjCtrl" = 0 : to run all the jobs
#           = 1 : to fetch result from existed log and chk files
#           = 2 : to run the job without corresponding log or chk files
#       "ProjTool" = "Gaussian" : to run jobs using Gaussian package (default)
#                  = "QChem"    : to run jobs using Q-Chem package
#                "ProjDir"       "ProjCtrl"      "ProjTool"
__project__ ::   ./HEAVY28           2           QChem 

# The project description
__title__ ::
"============================== HEAVY28 set ============================="
"     This is HEAVY28 subset from GMTKN30 proposed by Grimme             "
"     The basis set of def2-QZVP is used here                            "
"     As Q-Chem cannot handle G function with ECP, which is removed      "
"     Link rimp2-def2-QZVP to rimp2-aug-cc-pvDZ                          "

# $rem group of Q-Chem Package
__qchem__ ::  1 rmp2  # 0 for serial version Q-Chem and 1 for parallel version Q-Chem
$rem
mem_static      = 200
mem_total       = 7500
exchange        = b3lyp
basis           = gen
ecp             = gen
max_scf_cycles  = 50
scf_convergence = 7
symmetry        = false
xc_grid         = 000075000302
$end
$basis
H     0 
S   4   1.00
    190.6916900              0.70815167E-03   
     28.6055320              0.54678827E-02   
      6.5095943              0.27966605E-01   
      1.8412455              0.10764538       
S   1   1.00
      0.59853725             1.0000000        
S   1   1.00
      0.21397624             1.0000000        
S   1   1.00
      0.80316286E-01         1.0000000        
P   1   1.00
      2.29200000             1.0000000        
P   1   1.00
      0.83800000             1.0000000        
P   1   1.00
      0.29200000             1.0000000        
D   1   1.00
      2.06200000             1.0000000        
D   1   1.00
      0.66200000             1.0000000        
F   1   1.00
      1.39700000             1.0000000        
****
N     0 
S   8   1.00
  90726.8892100              0.39257887368E-04      
  13590.5288010              0.30513316455E-03      
   3092.9883781              0.16000560446E-02      
    875.99876362             0.66982937306E-02      
    285.74469982             0.23690078765E-01      
    103.11913417             0.71455405268E-01      
     40.128556777            0.17632774876    
     16.528095704            0.32677592815    
S   2   1.00
     69.390960983            0.80052094386E-01      
     20.428200596            0.78268063538    
S   1   1.00
      7.1292587972           1.0000000        
S   1   1.00
      3.1324304893           1.0000000        
S   1   1.00
      0.98755778723          1.0000000        
S   1   1.00
      0.38765721307          1.0000000        
S   1   1.00
      0.14909883075          1.0000000        
P   5   1.00
    150.05742670            -0.86216165986E-03      
     35.491599483           -0.68571273236E-02      
     11.247864223           -0.31795688855E-01      
      4.0900305195          -0.10537396822    
      1.6220573146          -0.24519708041    
P   1   1.00
      0.66442261530          1.0000000        
P   1   1.00
      0.27099770070          1.0000000        
P   1   1.00
      0.10688749984          1.0000000        
D   1   1.00
      2.83700000             1.0000000        
D   1   1.00
      0.96800000             1.0000000        
D   1   1.00
      0.33500000             1.0000000        
F   1   1.00
      2.02700000             1.0000000        
F   1   1.00
      0.68500000             1.0000000        
****
O     0 
S   8   1.00
 116506.4690800              0.40383857939E-04      
  17504.3497240              0.31255139004E-03      
   3993.4513230              0.16341473495E-02      
   1133.0063186              0.68283224757E-02      
    369.99569594             0.24124410221E-01      
    133.62074349             0.72730206154E-01      
     52.035643649            0.17934429892    
     21.461939313            0.33059588895    
S   2   1.00
     89.835051252            0.96468652996E-01      
     26.428010844            0.94117481120    
S   1   1.00
      9.2822824649           1.0000000        
S   1   1.00
      4.0947728533           1.0000000        
S   1   1.00
      1.3255349078           1.0000000        
S   1   1.00
      0.51877230787          1.0000000        
S   1   1.00
      0.19772676454          1.0000000        
P   5   1.00
    191.15255810             0.25115697705E-02      
     45.233356739            0.20039240864E-01      
     14.353465922            0.93609064762E-01      
      5.2422371832           0.30618127124    
      2.0792418599           0.67810501439    
P   1   1.00
      0.84282371424          1.0000000        
P   1   1.00
      0.33617694891          1.0000000        
P   1   1.00
      0.12863997974          1.0000000        
D   1   1.00
      3.77500000             1.0000000        
D   1   1.00
      1.30000000             1.0000000        
D   1   1.00
      0.44400000             1.0000000        
F   1   1.00
      2.66600000             1.0000000        
F   1   1.00
      0.85900000             1.0000000        
****
S     0 
S   10   1.00
 1273410.9023000             0.11767088246E-04      
 190697.8300700              0.91478610166E-04      
  43397.8853300              0.48090078640E-03      
  12291.8096770              0.20257193592E-02      
   4009.7420824              0.73190096406E-02      
   1447.3531030              0.23300499900E-01      
    564.30102913             0.65386213610E-01      
    233.74506243             0.15614449910    
    101.56402814             0.29318563787    
     45.805907187            0.36287914289    
S   3   1.00
    394.27281503             0.18753305081E-01      
    121.72249591             0.16870726663    
     46.754125963            0.63806830653    
S   1   1.00
     20.923008254            1.0000000        
S   1   1.00
      8.2685567800           1.0000000        
S   1   1.00
      3.8629345671           1.0000000        
S   1   1.00
      1.7794684781           1.0000000        
S   1   1.00
      0.61064260103          1.0000000        
S   1   1.00
      0.27412269445          1.0000000        
S   1   1.00
      0.11325939107          1.0000000        
P   8   1.00
   2189.8930459              0.23912552864E-03      
    518.94596592             0.20772032158E-02      
    168.19560151             0.11242420571E-01      
     63.745282788            0.44069933941E-01      
     26.597033077            0.12918778608    
     11.774251449            0.26910820167    
      5.3534379024           0.37855928620    
      2.4701911802           0.29692134655    
P   2   1.00
     82.120288349           -0.39420318847E-01      
      4.9523532869           0.64048403090    
P   1   1.00
      1.0828262029           1.0000000        
P   1   1.00
      0.49271277356          1.0000000        
P   1   1.00
      0.20483450942          1.0000000        
P   1   1.00
      0.80743615716E-01            1.0000000        
D   1   1.00
      4.15900000             1.0000000        
D   1   1.00
      1.01900000             1.0000000        
D   1   1.00
      0.464000000            1.0000000        
D   1   1.00
      0.194000000            1.0000000        
F   1   1.00
      0.335000000            1.0000000        
F   1   1.00
      0.869000000            1.0000000        
****
Cl     0 
S   10   1.00
 1467459.0095000             0.11478257194E-04      
 219756.1643300              0.89234299775E-04      
  50010.7703010              0.46911086186E-03      
  14164.8239180              0.19762446133E-02      
   4620.7465525              0.71419937783E-02      
   1667.8991635              0.22753219445E-01      
    650.29199265             0.63959782953E-01      
    269.38037376             0.15331059238    
    117.06752106             0.28986952417    
     52.811766843            0.36348071452    
S   3   1.00
    461.42769988             0.18019457578E-01      
    142.12665355             0.16489442314    
     54.437838768            0.63891587584    
S   1   1.00
     24.160770219            1.0000000        
S   1   1.00
      9.7083540306           1.0000000        
S   1   1.00
      4.5640696733           1.0000000        
S   1   1.00
      2.1194744832           1.0000000        
S   1   1.00
      0.75722365394          1.0000000        
S   1   1.00
      0.33747224597          1.0000000        
S   1   1.00
      0.13860775149          1.0000000        
P   8   1.00
   2501.9457890              0.24242618410E-03      
    592.88059285             0.21079961749E-02      
    192.18089186             0.11432693869E-01      
     72.875710488            0.44956698060E-01      
     30.436358370            0.13197476145    
     13.490178902            0.27493639225    
      6.1478071413           0.38347236372    
      2.8450944820           0.28871943885    
P   2   1.00
    105.39397936            -0.34311760144E-01      
      6.7369738513           0.64060818902    
P   1   1.00
      1.2421095772           1.0000000        
P   1   1.00
      0.55669714254          1.0000000        
P   1   1.00
      0.23387801464          1.0000000        
P   1   1.00
      0.93164490890E-01            1.0000000        
D   1   1.00
      5.19100000             1.0000000        
D   1   1.00
      1.27600000             1.0000000        
D   1   1.00
      0.583000000            1.0000000        
D   1   1.00
      0.243000000            1.0000000        
F   1   1.00
      0.423000000            1.0000000        
F   1   1.00
      1.08900000             1.0000000        
****
Br     0 
S   11   1.00
 10629044.2640000            0.59322104325E-05      
 1591918.2739000             0.46118980689E-04      
 362333.9843700              0.24244612378E-03      
 102643.1114100              0.10231422748E-02      
  33489.8466680              0.37121984175E-02      
  12091.2471900              0.11978107933E-01      
   4716.1908789              0.34682692842E-01      
   1956.1598080              0.89068331264E-01      
    853.08595848             0.19330124567    
    387.96633666             0.32071144956    
    182.85156613             0.32996797574    
S   4   1.00
   3240.4086421              0.65905194070E-02      
   1000.4631935              0.68439609656E-01      
    383.37301682             0.34495478668    
    166.03929698             0.82315542085    
S   1   1.00
     87.919906994            1.0000000        
S   1   1.00
     35.675840068            1.0000000        
S   1   1.00
     17.543657842            1.0000000        
S   1   1.00
      8.4473660433           1.0000000        
S   1   1.00
      3.9666180616           1.0000000        
S   1   1.00
      1.8356815987           1.0000000        
S   1   1.00
      0.59084778776          1.0000000        
S   1   1.00
      0.28863218421          1.0000000        
S   1   1.00
      0.12153380537          1.0000000        
P   10   1.00
  26566.4765790              0.62073657410E-04      
   6290.5088566              0.55131636217E-03      
   2043.3178410              0.31680110980E-02      
    781.67221007             0.13816597290E-01      
    331.51078945             0.48018539681E-01      
    151.09198667             0.13162015183    
     72.395278166            0.26860052203    
     35.869510844            0.36827391093    
     18.139906191            0.27108612944    
      9.0466688944           0.76215338633E-01      
P   5   1.00
    253.71822146            -0.13729169381E-02      
     97.250818058           -0.10393811185E-01      
     42.034897960           -0.32204214612E-01      
      9.9685673555           0.24224770086    
      4.9395854745           0.53557868398    
P   1   1.00
      2.4382845475           1.0000000        
P   1   1.00
      1.1800000000           1.0000000        
P   1   1.00
      0.51047564965          1.0000000        
P   1   1.00
      0.21215851928          1.0000000        
P   1   1.00
      0.83943604990E-01            1.0000000        
D   7   1.00
    601.44434484             0.62783723765E-03      
    180.85718640             0.57205157153E-02      
     69.986806340            0.29002521527E-01      
     30.324710300            0.96446989766E-01      
     14.027909238            0.22065825870    
      6.6511702082           0.33657642375    
      3.1354168338           0.34872040582    
D   1   1.00
      1.4393591843           1.0000000        
D   1   1.00
      0.59350441438          1.0000000        
D   1   1.00
      0.2300000              1.0000000        
F   1   1.00
      0.34070000000          1.0000000        
F   1   1.00
      0.82570000000          1.0000000        
****
Sb     0 
S   9   1.00
  12339.3165550              0.38545231046E-04      
   1854.7043271              0.27702166404E-03      
    418.44441772             0.11161923778E-02      
     96.965111109            0.28828055377E-02      
     28.537960267           -0.60556405021E-01      
     17.862907144            0.27988835315    
      8.4541754812          -0.54748479396    
      5.2813981306          -0.30336289748    
      2.3194618632           0.68093278701    
S   3   1.00
     25.336266601            0.22414355064E-01      
     12.477043309           -0.14737811818    
      3.0723142741           0.53278468779    
S   1   1.00
      1.2167512076           1.0000000        
S   1   1.00
      0.60174774699          1.0000000        
S   1   1.00
      0.28323936354          1.0000000        
S   1   1.00
      0.13221765728          1.0000000        
S   1   1.00
      0.60986718951E-01            1.0000000        
P   7   1.00
    162.89300000             0.37500000000E-03      
     30.399600000           -0.47980000000E-02      
     19.000400000            0.54731000000E-01      
      9.3225600000          -0.25528400000    
      3.0166800000           0.34537700000    
      1.8621900000           0.40483300000    
      1.1033100000           0.32592200000    
P   3   1.00
     12.665326113           -0.20694788562E-01      
      3.3473442879           0.26878411014    
      1.1722158971           0.72590523998    
P   1   1.00
      0.58886745483          1.0000000        
P   1   1.00
      0.25014249608          1.0000000        
P   1   1.00
      0.11120161090          1.0000000        
P   1   1.00
      0.48206685448E-01            1.0000000        
D   8   1.00
    142.61790051             0.34691704136E-03      
     40.920334292            0.27417583490E-02      
     10.854520545           -0.33847404142E-01      
      8.3926457719           0.42753986065E-01      
      4.1806878019           0.16545099365    
      2.5346474124           0.26821979719    
      1.5175455555           0.31482077294    
      0.86799625994          0.25485913704    
D   1   1.00
      0.47323070711          1.0000000        
D   1   1.00
      0.24111763234          1.0000000        
D   1   1.00
      0.10080000000          1.0000000        
F   1   1.00
      0.484900000            1.0000000        
F   1   1.00
      0.204900000            1.0000000        
F   1   1.00
      1.7880600000           1.0000000        
F   1   1.00
      5.6265581363           1.0000000        
****
Te     0 
S   9   1.00
  15746.3000000              0.54000000000E-04      
   2369.2500000              0.39800000000E-03      
    535.86000000             0.16620000000E-02      
    141.88500000             0.36360000000E-02      
     27.819700000           -0.58427000000E-01      
     17.387900000            0.36652000000    
     10.865600000           -0.39758900000    
      6.5688500000          -0.51917500000    
      2.4013900000           0.68765200000    
S   3   1.00
     29.383253023            0.30079778033E-01      
     15.946408003           -0.13631630929    
      3.6679902632           0.53467574034    
S   1   1.00
      1.2865441585           1.0000000        
S   1   1.00
      0.63533594694          1.0000000        
S   1   1.00
      0.29807786206          1.0000000        
S   1   1.00
      0.14061248688          1.0000000        
S   1   1.00
      0.65660655893E-01            1.0000000        
P   7   1.00
    750.22200000             0.52000000000E-04      
    163.96100000             0.41000000000E-03      
     16.922700000            0.83387000000E-01      
     10.575500000           -0.26821200000    
      5.7046200000          -0.22932000000E-01      
      2.9802200000           0.49554800000    
      1.5197000000           0.51452200000    
P   3   1.00
     13.925457258           -0.21336842159E-01      
      4.2323766654           0.22433961554    
      1.4547630727           0.73198528158    
P   1   1.00
      0.75528783692          1.0000000        
P   1   1.00
      0.31829451168          1.0000000        
P   1   1.00
      0.13721830923          1.0000000        
P   1   1.00
      0.57099171462E-01            1.0000000        
D   8   1.00
    146.30727119             0.43816018982E-03      
     42.243859354            0.33559305599E-02      
      9.9155377745          -0.11157186771    
      8.9949643607           0.13269569633    
      4.1376628430           0.21574044755    
      2.3659339431           0.32583679541    
      1.3736141857           0.30685918052    
      0.79846379228          0.19445241192    
D   1   1.00
      0.45685175394          1.0000000        
D   1   1.00
      0.25022747959          1.0000000        
D   1   1.00
      0.11560000000          1.0000000        
F   1   1.00
      0.518400000            1.0000000        
F   1   1.00
      0.213500000            1.0000000        
F   1   1.00
      1.9347800000           1.0000000        
F   1   1.00
      5.8043400000           1.0000000        
****
I     0 
S   9   1.00
  16788.4000000              0.41000000000E-04      
   2526.6400000              0.30300000000E-03      
    571.98400000             0.12470000000E-02      
    150.43400000             0.26590000000E-02      
     29.540500000           -0.53190000000E-01      
     18.457100000            0.34009600000    
     11.528600000           -0.35235500000    
      7.0828900000          -0.54138500000    
      2.5040500000           0.71574900000    
S   3   1.00
     25.058617933            0.40897754402E-01      
     15.621979372           -0.14269668187    
      3.3536325162           0.52916319279    
S   1   1.00
      1.3540144781           1.0000000        
S   1   1.00
      0.67430472704          1.0000000        
S   1   1.00
      0.32727136949          1.0000000        
S   1   1.00
      0.15749364119          1.0000000        
S   1   1.00
      0.74377727841E-01            1.0000000        
P   7   1.00
    656.27400000             0.91000000000E-04      
    149.23200000             0.61300000000E-03      
     19.015300000            0.59923000000E-01      
     10.737800000           -0.24925800000    
      6.4420800000          -0.43750000000E-02      
      3.0920300000           0.51399900000    
      1.5787400000           0.50721300000    
P   3   1.00
     15.660511893           -0.22143803592E-01      
      4.9250669812           0.23518064355    
      1.6692319982           0.73153925548    
P   1   1.00
      0.77817898176          1.0000000        
P   1   1.00
      0.35608843716          1.0000000        
P   1   1.00
      0.15493242649          1.0000000        
P   1   1.00
      0.64666212492E-01            1.0000000        
D   8   1.00
    318.22407776             0.10951692560E-03      
     95.810227352            0.91919139268E-03      
     35.322295259            0.47916935207E-02      
     13.107447819           -0.16280459996E-01      
      6.2949152988           0.90889609141E-01      
      3.6826101201           0.27483543784    
      2.0858950647           0.36067901632    
      1.1644342344           0.28384002219    
D   1   1.00
      0.63180613129          1.0000000        
D   1   1.00
      0.32215084697          1.0000000        
D   1   1.00
      0.13490000000          1.0000000        
F   1   1.00
      0.587800000            1.0000000        
F   1   1.00
      0.250000000            1.0000000        
F   1   1.00
      2.1780000000           1.0000000        
F   1   1.00
      6.4253613600           1.0000000        
****
Pb     0 
S   9   1.00
   9368.3300000              0.14000000000E-04      
   1366.9300000              0.10300000000E-03      
    299.68200000             0.37900000000E-03      
     34.859700000            0.23274000000E-01      
     21.788900000           -0.20343600000    
     13.620000000            0.69921400000    
      8.5129500000          -0.60684100000    
      5.3033200000          -0.61139200000    
      1.9281600000           0.76522700000    
S   3   1.00
     13.559944213            0.15955164155    
     11.039620045           -0.26750615828    
      2.1371722788           0.52500552105    
S   1   1.00
      1.0373400312           1.0000000        
S   1   1.00
      0.51111685694          1.0000000        
S   1   1.00
      0.24673987563          1.0000000        
S   1   1.00
      0.11577976738          1.0000000        
S   1   1.00
      0.52874167812E-01            1.0000000        
P   7   1.00
     59.090100000            0.71600000000E-03      
     20.919700000           -0.21082000000E-01      
     13.077700000            0.12706100000    
      6.8991000000          -0.37228400000    
      2.1962700000           0.43566300000    
      1.3048600000           0.43573500000    
      0.77957200000          0.26094700000    
P   3   1.00
      9.1373183134          -0.55319030476E-01      
      3.9570574249           0.27275707058    
      1.2246639098           0.72280340692    
P   1   1.00
      0.42601564238          1.0000000        
P   1   1.00
      0.20378586294          1.0000000        
P   1   1.00
      0.88168647885E-01            1.0000000        
P   1   1.00
      0.37094701422E-01            1.0000000        
D   7   1.00
     66.348248961            0.28507140251E-03      
     13.455899798            0.93352787747E-02      
      6.5510273149          -0.75354763534E-01      
      2.6574136949           0.16674578725    
      1.6001278005           0.31208757936    
      0.93304454981          0.32900401823    
      0.54391365526          0.22655044022    
D   1   1.00
      0.32059545270          1.0000000        
D   1   1.00
      0.17922304239          1.0000000        
D   1   1.00
      0.83200000000E-01            1.0000000        
F   1   1.00
      0.441300000            1.0000000        
F   1   1.00
      0.178200000            1.0000000        
F   1   1.00
      1.1606000000           1.0000000        
F   1   1.00
      2.5184938758           1.0000000        
****
Bi     0 
S   9   1.00
   8131.0900000              0.29000000000E-04      
   1225.7700000              0.20000000000E-03      
    274.67200000             0.68400000000E-03      
     37.616400000            0.20218000000E-01      
     23.480400000           -0.15932600000    
     14.106500000            0.61172600000    
      8.8130500000          -0.54465300000    
      5.5077800000          -0.63688400000    
      2.0397700000           0.77169800000    
S   3   1.00
     13.614284474            0.15800789319    
     11.010881766           -0.27164962692    
      2.2630089550           0.52469330212    
S   1   1.00
      1.0975227257           1.0000000        
S   1   1.00
      0.52344449532          1.0000000        
S   1   1.00
      0.26734409206          1.0000000        
S   1   1.00
      0.12836608814          1.0000000        
S   1   1.00
      0.60097735551E-01            1.0000000        
P   7   1.00
     99.591400000            0.34600000000E-03      
     19.896400000           -0.19976000000E-01      
     12.437600000            0.17544600000    
      7.7740000000          -0.37955600000    
      4.8399500000          -0.55262000000E-01      
      2.2547800000           0.52888400000    
      1.1804900000           0.52132400000    
P   3   1.00
      9.6213214965          -0.52920356623E-01      
      4.1321350830           0.26705180214    
      1.2785827783           0.72824686940    
P   1   1.00
      0.59423596262          1.0000000        
P   1   1.00
      0.25794168858          1.0000000        
P   1   1.00
      0.11273595358          1.0000000        
P   1   1.00
      0.47791974731E-01            1.0000000        
D   7   1.00
     69.632799181            0.35055800732E-03      
     14.888614968            0.81591735697E-02      
      6.5949628713          -0.83905319526E-01      
      4.1796107640           0.28034212952E-01      
      2.5697950152           0.20202314185    
      1.5601364822           0.33621249652    
      0.89210528768          0.34629017140    
D   1   1.00
      0.48093728228          1.0000000        
D   1   1.00
      0.24233621968          1.0000000        
D   1   1.00
      0.10440000000          1.0000000        
F   1   1.00
      0.480300000            1.0000000        
F   1   1.00
      0.200600000            1.0000000        
F   1   1.00
      1.2625600000           1.0000000        
F   1   1.00
      2.7210175470           1.0000000        
G   1   1.00
      0.420300000            1.0000000        
****
$end
$ecp
SB     0
SB-ECP     3     28
f-ul potential
  2
2     14.44497800           -15.36680100       
2     14.44929500           -20.29613800       
s-ul potential
  4
2     16.33086500           281.07158100       
2      8.55654200            61.71660400       
2     14.44497800            15.36680100       
2     14.44929500            20.29613800       
p-ul potential
  6
2     14.47033700            67.45738000       
2     13.81619400           134.93350300       
2      8.42492400            14.71634400       
2      8.09272800            29.51851200       
2     14.44497800            15.36680100       
2     14.44929500            20.29613800       
d-ul potential
  6
2     14.88633100            35.44781500       
2     15.14631900            53.14346600       
2      5.90826700             9.17922300       
2      5.59432200            13.24025300       
2     14.44497800            15.36680100       
2     14.44929500            20.29613800       
****
TE     0
TE-ECP     3     28
f-ul potential
  2
2     15.20616800           -15.74545000       
2     15.20170200           -20.74244800       
s-ul potential
  4
2     16.81447300           281.04584300       
2      8.79352600            61.62065600       
2     15.20616800            15.74545000       
2     15.20170200            20.74244800       
p-ul potential
  6
2     14.87780100            67.44946400       
2     14.26973100           134.90430400       
2      8.72443500            14.68954700       
2      8.29151500            29.41506300       
2     15.20616800            15.74545000       
2     15.20170200            20.74244800       
d-ul potential
  6
2     15.20500800            35.43205700       
2     15.22584800            53.13568700       
2      6.07176900             9.06980200       
2      5.80476000            13.12230400       
2     15.20616800            15.74545000       
2     15.20170200            20.74244800       
****
I     0
I-ECP     3     28
f-ul potential
  4
2     19.45860900           -21.84204000       
2     19.34926000           -28.46819100       
2      4.82376700            -0.24371300       
2      4.88431500            -0.32080400       
s-ul potential
  7
2     40.01583500            49.99429300       
2     17.42974700           281.02531700       
2      9.00548400            61.57332600       
2     19.45860900            21.84204000       
2     19.34926000            28.46819100       
2      4.82376700             0.24371300       
2      4.88431500             0.32080400       
p-ul potential
  8
2     15.35546600            67.44284100       
2     14.97183300           134.88113700       
2      8.96016400            14.67505100       
2      8.25909600            29.37566600       
2     19.45860900            21.84204000       
2     19.34926000            28.46819100       
2      4.82376700             0.24371300       
2      4.88431500             0.32080400       
d-ul potential
  10
2     15.06890800            35.43952900       
2     14.55532200            53.17605700       
2      6.71864700             9.06719500       
2      6.45639300            13.20693700       
2      1.19177900             0.08933500       
2      1.29115700             0.05238000       
2     19.45860900            21.84204000       
2     19.34926000            28.46819100       
2      4.82376700             0.24371300       
2      4.88431500             0.32080400       
****
PB     0
PB-ECP     3     60
f-ul potential
  2
2      3.88751200            12.20989200       
2      3.81196300            16.19029100       
s-ul potential
  4
2     12.29630300           281.28549900       
2      8.63263400            62.52021700       
2      3.88751200           -12.20989200       
2      3.81196300           -16.19029100       
p-ul potential
  6
2     10.24179000            72.27689700       
2      8.92417600           144.59108300       
2      6.58134200             4.75869300       
2      6.25540300             9.94062100       
2      3.88751200           -12.20989200       
2      3.81196300           -16.19029100       
d-ul potential
  6
2      7.75433600            35.84850700       
2      7.72028100            53.72434200       
2      4.97026400            10.11525600       
2      4.56378900            14.83373100       
2      3.88751200           -12.20989200       
2      3.81196300           -16.19029100       
****
BI     0
BI-ECP     3     60