# The project environment :
#     "ProjDir" specifying the storage DIR of this project
#     "ProjCtrl" = 0 : to run all the jobs
#           = 1 : to fetch result from existed log and chk files
#           = 2 : to run the job without corresponding log or chk files
#       "ProjTool" = "Gaussian" : to run jobs using Gaussian package (default)
#                  = "QChem"    : to run jobs using Q-Chem package
#                "ProjDir"       "ProjCtrl"      "ProjTool"
__project__ ::   ./ISOL22           2            QChem

# The project description
__title__ ::
"============================== ISOL22 set ============================="
"             This is ISOL22 subset from GMTKN30 proposed by Grimme     "
"             def2-QZVP is used here                                    "

# $rem group of Q-Chem Package
__qchem__ ::  1  rmp2 # 0 for serial version Q-Chem and 1 for parallel version Q-Chem
$rem
mem_static      = 6000
mem_total       = 60000
exchange        = b3lyp
basis           = gen
max_scf_cycles  = 50
scf_convergence = 7
symmetry        = false
xc_grid         = 000075000302                                                               
$end
$basis
H     0 
S   4   1.00
    190.6916900              0.70815167E-03   
     28.6055320              0.54678827E-02   
      6.5095943              0.27966605E-01   
      1.8412455              0.10764538       
S   1   1.00
      0.59853725             1.0000000        
S   1   1.00
      0.21397624             1.0000000        
S   1   1.00
      0.80316286E-01         1.0000000        
P   1   1.00
      2.29200000             1.0000000        
P   1   1.00
      0.83800000             1.0000000        
P   1   1.00
      0.29200000             1.0000000        
D   1   1.00
      2.06200000             1.0000000        
D   1   1.00
      0.66200000             1.0000000        
F   1   1.00
      1.39700000             1.0000000        
****
C     0 
S   8   1.00
  67025.0710290              0.38736308501E-04      
  10039.9865380              0.30107917575E-03      
   2284.9316911              0.15787918095E-02      
    647.14122130             0.66087087195E-02      
    211.09472335             0.23367123250E-01      
     76.177643862            0.70420716898E-01      
     29.633839163            0.17360344953    
     12.187785081            0.32292305648    
S   2   1.00
     53.026006299            0.74897404492E-01      
     15.258502776            0.76136220983    
S   1   1.00
      5.2403957464           1.0000000        
S   1   1.00
      2.2905022379           1.0000000        
S   1   1.00
      0.69673283006          1.0000000        
S   1   1.00
      0.27599337363          1.0000000        
S   1   1.00
      0.10739884389          1.0000000        
P   5   1.00
    105.12555082             0.84647553844E-03      
     24.884461066            0.66274038534E-02      
      7.8637230826           0.30120390419E-01      
      2.8407001835           0.99951435476E-01      
      1.1227137335           0.23826299282    
P   1   1.00
      0.46050725555          1.0000000        
P   1   1.00
      0.18937530913          1.0000000        
P   1   1.00
      0.75983791611E-01            1.0000000        
D   1   1.00
      1.84800000             1.0000000        
D   1   1.00
      0.64900000             1.0000000        
D   1   1.00
      0.22800000             1.0000000        
F   1   1.00
      1.41900000             1.0000000        
F   1   1.00
      0.48500000             1.0000000        
G   1   1.00
      1.01100000             1.0000000        
****
N     0 
S   8   1.00
  90726.8892100              0.39257887368E-04      
  13590.5288010              0.30513316455E-03      
   3092.9883781              0.16000560446E-02      
    875.99876362             0.66982937306E-02      
    285.74469982             0.23690078765E-01      
    103.11913417             0.71455405268E-01      
     40.128556777            0.17632774876    
     16.528095704            0.32677592815    
S   2   1.00
     69.390960983            0.80052094386E-01      
     20.428200596            0.78268063538    
S   1   1.00
      7.1292587972           1.0000000        
S   1   1.00
      3.1324304893           1.0000000        
S   1   1.00
      0.98755778723          1.0000000        
S   1   1.00
      0.38765721307          1.0000000        
S   1   1.00
      0.14909883075          1.0000000        
P   5   1.00
    150.05742670            -0.86216165986E-03      
     35.491599483           -0.68571273236E-02      
     11.247864223           -0.31795688855E-01      
      4.0900305195          -0.10537396822    
      1.6220573146          -0.24519708041    
P   1   1.00
      0.66442261530          1.0000000        
P   1   1.00
      0.27099770070          1.0000000        
P   1   1.00
      0.10688749984          1.0000000        
D   1   1.00
      2.83700000             1.0000000        
D   1   1.00
      0.96800000             1.0000000        
D   1   1.00
      0.33500000             1.0000000        
F   1   1.00
      2.02700000             1.0000000        
F   1   1.00
      0.68500000             1.0000000        
G   1   1.00
      1.42700000             1.0000000        
****
O     0 
S   8   1.00
 116506.4690800              0.40383857939E-04      
  17504.3497240              0.31255139004E-03      
   3993.4513230              0.16341473495E-02      
   1133.0063186              0.68283224757E-02      
    369.99569594             0.24124410221E-01      
    133.62074349             0.72730206154E-01      
     52.035643649            0.17934429892    
     21.461939313            0.33059588895    
S   2   1.00
     89.835051252            0.96468652996E-01      
     26.428010844            0.94117481120    
S   1   1.00
      9.2822824649           1.0000000        
S   1   1.00
      4.0947728533           1.0000000        
S   1   1.00
      1.3255349078           1.0000000        
S   1   1.00
      0.51877230787          1.0000000        
S   1   1.00
      0.19772676454          1.0000000        
P   5   1.00
    191.15255810             0.25115697705E-02      
     45.233356739            0.20039240864E-01      
     14.353465922            0.93609064762E-01      
      5.2422371832           0.30618127124    
      2.0792418599           0.67810501439    
P   1   1.00
      0.84282371424          1.0000000        
P   1   1.00
      0.33617694891          1.0000000        
P   1   1.00
      0.12863997974          1.0000000        
D   1   1.00
      3.77500000             1.0000000        
D   1   1.00
      1.30000000             1.0000000        
D   1   1.00
      0.44400000             1.0000000        
F   1   1.00
      2.66600000             1.0000000        
F   1   1.00
      0.85900000             1.0000000        
G   1   1.00
      1.84600000             1.0000000        
****
F     0 
S   8   1.00
 132535.9734500              0.47387482743E-04      
  19758.1125880              0.37070120897E-03      
   4485.1996947              0.19450784713E-02      
   1273.8151020              0.80573291994E-02      
    418.93831236             0.27992880781E-01      
    152.55721985             0.82735120175E-01      
     59.821524823            0.19854169012    
     24.819076932            0.34860632233    
S   2   1.00
    100.74446673             0.10505068816    
     30.103728290            0.94068472434    
S   1   1.00
     10.814283272            1.0000000        
S   1   1.00
      4.8172886770           1.0000000        
S   1   1.00
      1.6559334213           1.0000000        
S   1   1.00
      0.64893519582          1.0000000        
S   1   1.00
      0.24778104545          1.0000000        
P   5   1.00
    240.96654114             0.30389933451E-02      
     57.020699781            0.24357738582E-01      
     18.126952120            0.11442925768    
      6.6457404621           0.37064659853    
      2.6375722892           0.79791551766    
P   1   1.00
      1.0638217200           1.0000000        
P   1   1.00
      0.41932562750          1.0000000        
P   1   1.00
      0.15747588299          1.0000000        
D   1   1.00
      5.01400000             1.0000000        
D   1   1.00
      1.72500000             1.0000000        
D   1   1.00
      0.58600000             1.0000000        
F   1   1.00
      3.56200000             1.0000000        
F   1   1.00
      1.14800000             1.0000000        
G   1   1.00
      2.37600000             1.0000000        
****
Si     0 
S   10   1.00
 918070.6956500              0.12658787192E-04      
 137485.2538600              0.98408387461E-04      
  31287.7727140              0.51731398244E-03      
   8861.6105697              0.21785441933E-02      
   2890.6943156              0.78656853716E-02      
   1043.4063979              0.24987553674E-01      
    406.80160276             0.69761818844E-01      
    168.48360207             0.16473362733    
     73.185628823            0.30285602647    
     32.998485420            0.36007260439    
S   3   1.00
    278.78751325             0.20185463814E-01      
     85.910228722            0.17720406747    
     32.992604031            0.63587860906    
S   1   1.00
     15.033693254            1.0000000        
S   1   1.00
      5.7257514773           1.0000000        
S   1   1.00
      2.6146521029           1.0000000        
S   1   1.00
      1.1757833152           1.0000000        
S   1   1.00
      0.35432330868          1.0000000        
S   1   1.00
      0.16248335806          1.0000000        
S   1   1.00
      0.68332457181E-01            1.0000000        
P   8   1.00
   1775.8850516              0.20186971126E-03      
    420.83786849             0.17544314655E-02      
    136.42290243             0.95039532290E-02      
     51.700991737            0.37325741590E-01      
     21.559456002            0.11085396329    
      9.5559200095           0.23756407046    
      4.3529819473           0.35295783750    
      2.0096964381           0.32885931947    
P   2   1.00
     46.418153780            0.25858819154E-01      
      1.9076417796          -0.59874865899    
P   1   1.00
      0.92337221587          1.0000000        
P   1   1.00
      0.34515720370          1.0000000        
P   1   1.00
      0.13656834761          1.0000000        
P   1   1.00
      0.52987060586E-01            1.0000000        
D   1   1.00
      2.64500000             1.0000000        
D   1   1.00
      0.608000000            1.0000000        
D   1   1.00
      0.272000000            1.0000000        
D   1   1.00
      0.113000000            1.0000000        
F   1   1.00
      0.212000000            1.0000000        
F   1   1.00
      0.541000000            1.0000000        
G   1   1.00
      0.461000000            1.0000000        
****
Cl     0 
S   10   1.00
 1467459.0095000             0.11478257194E-04      
 219756.1643300              0.89234299775E-04      
  50010.7703010              0.46911086186E-03      
  14164.8239180              0.19762446133E-02      
   4620.7465525              0.71419937783E-02      
   1667.8991635              0.22753219445E-01      
    650.29199265             0.63959782953E-01      
    269.38037376             0.15331059238    
    117.06752106             0.28986952417    
     52.811766843            0.36348071452    
S   3   1.00
    461.42769988             0.18019457578E-01      
    142.12665355             0.16489442314    
     54.437838768            0.63891587584    
S   1   1.00
     24.160770219            1.0000000        
S   1   1.00
      9.7083540306           1.0000000        
S   1   1.00
      4.5640696733           1.0000000        
S   1   1.00
      2.1194744832           1.0000000        
S   1   1.00
      0.75722365394          1.0000000        
S   1   1.00
      0.33747224597          1.0000000        
S   1   1.00
      0.13860775149          1.0000000        
P   8   1.00
   2501.9457890              0.24242618410E-03      
    592.88059285             0.21079961749E-02      
    192.18089186             0.11432693869E-01      
     72.875710488            0.44956698060E-01      
     30.436358370            0.13197476145    
     13.490178902            0.27493639225    
      6.1478071413           0.38347236372    
      2.8450944820           0.28871943885    
P   2   1.00
    105.39397936            -0.34311760144E-01      
      6.7369738513           0.64060818902    
P   1   1.00
      1.2421095772           1.0000000        
P   1   1.00
      0.55669714254          1.0000000        
P   1   1.00
      0.23387801464          1.0000000        
P   1   1.00
      0.93164490890E-01            1.0000000        
D   1   1.00
      5.19100000             1.0000000        
D   1   1.00
      1.27600000             1.0000000        
D   1   1.00
      0.583000000            1.0000000        
D   1   1.00
      0.243000000            1.0000000        
F   1   1.00
      0.423000000            1.0000000        
F   1   1.00
      1.08900000             1.0000000        
G   1   1.00
      0.827000000            1.0000000        
****
$end


# Specify <MacroPath> to be used in the batch
__macro_path__  ::
<PATH1> = '.'

# The molecular set to batch: 
#               44 is the total number of jobs in this batch list
__batch__ :: 44
#"Flag"         "DIR"                        "InpName"       "JobType"
   i10e          <PATH1>/ISOL22              i10e.in         energy
   i10p          <PATH1>/ISOL22              i10p.in         energy
   i11e          <PATH1>/ISOL22              i11e.in         energy
   i11p          <PATH1>/ISOL22              i11p.in         energy
   i12e          <PATH1>/ISOL22              i12e.in         energy
   i12p          <PATH1>/ISOL22              i12p.in         energy
   i13e          <PATH1>/ISOL22              i13e.in         energy
   i13p          <PATH1>/ISOL22              i13p.in         energy
   i14e          <PATH1>/ISOL22              i14e.in         energy
   i14p          <PATH1>/ISOL22              i14p.in         energy
   i15e          <PATH1>/ISOL22              i15e.in         energy
   i15p          <PATH1>/ISOL22              i15p.in         energy
   i16e          <PATH1>/ISOL22              i16e.in         energy
   i16p          <PATH1>/ISOL22              i16p.in         energy
   i17e          <PATH1>/ISOL22              i17e.in         energy
   i17p          <PATH1>/ISOL22              i17p.in         energy
   i18e          <PATH1>/ISOL22              i18e.in         energy
   i18p          <PATH1>/ISOL22              i18p.in         energy
   i19e          <PATH1>/ISOL22              i19e.in         energy
   i19p          <PATH1>/ISOL22              i19p.in         energy
   i20e          <PATH1>/ISOL22              i20e.in         energy
   i20p          <PATH1>/ISOL22              i20p.in         energy
   i21e          <PATH1>/ISOL22              i21e.in         energy
   i21p          <PATH1>/ISOL22              i21p.in         energy
   i22e          <PATH1>/ISOL22              i22e.in         energy
   i22p          <PATH1>/ISOL22              i22p.in         energy
   i23e          <PATH1>/ISOL22              i23e.in         energy
   i23p          <PATH1>/ISOL22              i23p.in         energy
   i24e          <PATH1>/ISOL22              i24e.in         energy
   i24p          <PATH1>/ISOL22              i24p.in         energy
    i2e          <PATH1>/ISOL22               i2e.in         energy
    i2p          <PATH1>/ISOL22               i2p.in         energy
    i3e          <PATH1>/ISOL22               i3e.in         energy
    i3p          <PATH1>/ISOL22               i3p.in         energy
    i5e          <PATH1>/ISOL22               i5e.in         energy
    i5p          <PATH1>/ISOL22               i5p.in         energy
    i6e          <PATH1>/ISOL22               i6e.in         energy
    i6p          <PATH1>/ISOL22               i6p.in         energy
    i7e          <PATH1>/ISOL22               i7e.in         energy
    i7p          <PATH1>/ISOL22               i7p.in         energy
    i8e          <PATH1>/ISOL22               i8e.in         energy
    i8p          <PATH1>/ISOL22               i8p.in         energy
    i9e          <PATH1>/ISOL22               i9e.in         energy
    i9p          <PATH1>/ISOL22               i9p.in         energy



# Training set for the atomization energy
#              22 is the total number of the energy testing data
#           627.51 is the scale factor from "a.u." to "kcal/mol", 
__energy__ ::  22 627.51
#"Number" "Flag"      "Scale"                                 "Ref"      "Weight"
  2     i2e    -1   i2p      1                                40.59      1.0000
  2     i3e    -1   i3p      1                                11.68      1.0000
  2     i5e    -1   i5p      1                                34.94      1.0000
  2     i6e    -1   i6p      1                                25.89      1.0000
  2     i7e    -1   i7p      1                                18.79      1.0000
  2     i8e    -1   i8p      1                                18.30      1.0000
  2     i9e    -1   i9p      1                                22.31      1.0000
  2    i10e    -1   i10p     1                                7.910      1.0000
  2    i11e    -1   i11p     1                                38.13      1.0000
  2    i12e    -1   i12p     1                                0.960      1.0000
  2    i13e    -1   i13p     1                                35.08      1.0000
  2    i14e    -1   i14p     1                                5.200      1.0000
  2    i15e    -1   i15p     1                                3.870      1.0000
  2    i16e    -1   i16p     1                                22.59      1.0000
  2    i17e    -1   i17p     1                                11.07      1.0000
  2    i18e    -1   i18p     1                                26.08      1.0000
  2    i19e    -1   i19p     1                                17.02      1.0000
  2    i20e    -1   i20p     1                                4.520      1.0000
  2    i21e    -1   i21p     1                                13.38      1.0000
  2    i22e    -1   i22p     1                                0.480      1.0000
  2    i23e    -1   i23p     1                                27.61      1.0000
  2    i24e    -1   i24p     1                                16.05      1.0000

