# The project environment :
#     "ProjDir" specifying the storage DIR of this project
#     "ProjCtrl" = 0 : to run all the jobs
#           = 1 : to fetch result from existed log and chk files
#           = 2 : to run the job without corresponding log or chk files
#       "ProjTool" = "Gaussian" : to run jobs using Gaussian package (default)
#                  = "QChem"    : to run jobs using Q-Chem package
#                "ProjDir"       "ProjCtrl"      "ProjTool"
__project__ ::   ./MB08-165          2           QChem 

# The project description
__title__ ::
"============================== MB08-165 set ============================="
"             This is MB08-165 subset from GMTKN30 proposed by Grimme     "

# $rem group of Q-Chem Package
__qchem__ ::  1  rmp2 # 0 for serial version Q-Chem and 1 for parallel version Q-Chem
$rem
mem_static      = 200
mem_total       = 7500
exchange        = b3lyp
basis           = g3large
max_scf_cycles  = 50
scf_convergence = 7
symmetry        = false
xc_grid         = 000075000302                                                               
$end



# Specify <MacroPath> to be used in the batch
__macro_path__  ::
<PATH1> = '.'

# The molecular set to batch: 
#                180 is the total number of jobs in this batch list
__batch__ :: 180
#"Flag"         "DIR"                        "InpName"       "JobType"
 001      <PATH1>/MB08-165                   001.in           energy
 002      <PATH1>/MB08-165                   002.in           energy
 003      <PATH1>/MB08-165                   003.in           energy
 004      <PATH1>/MB08-165                   004.in           energy
 005      <PATH1>/MB08-165                   005.in           energy
 006      <PATH1>/MB08-165                   006.in           energy
 007      <PATH1>/MB08-165                   007.in           energy
 008      <PATH1>/MB08-165                   008.in           energy
 009      <PATH1>/MB08-165                   009.in           energy
 010      <PATH1>/MB08-165                   010.in           energy
 011      <PATH1>/MB08-165                   011.in           energy
 012      <PATH1>/MB08-165                   012.in           energy
 013      <PATH1>/MB08-165                   013.in           energy
 014      <PATH1>/MB08-165                   014.in           energy
 015      <PATH1>/MB08-165                   015.in           energy
 016      <PATH1>/MB08-165                   016.in           energy
 017      <PATH1>/MB08-165                   017.in           energy
 018      <PATH1>/MB08-165                   018.in           energy
 019      <PATH1>/MB08-165                   019.in           energy
 020      <PATH1>/MB08-165                   020.in           energy
 021      <PATH1>/MB08-165                   021.in           energy
 022      <PATH1>/MB08-165                   022.in           energy
 023      <PATH1>/MB08-165                   023.in           energy
 024      <PATH1>/MB08-165                   024.in           energy
 025      <PATH1>/MB08-165                   025.in           energy
 026      <PATH1>/MB08-165                   026.in           energy
 027      <PATH1>/MB08-165                   027.in           energy
 028      <PATH1>/MB08-165                   028.in           energy
 029      <PATH1>/MB08-165                   029.in           energy
 030      <PATH1>/MB08-165                   030.in           energy
 031      <PATH1>/MB08-165                   031.in           energy
 032      <PATH1>/MB08-165                   032.in           energy
 033      <PATH1>/MB08-165                   033.in           energy
 034      <PATH1>/MB08-165                   034.in           energy
 035      <PATH1>/MB08-165                   035.in           energy
 036      <PATH1>/MB08-165                   036.in           energy
 037      <PATH1>/MB08-165                   037.in           energy
 038      <PATH1>/MB08-165                   038.in           energy
 039      <PATH1>/MB08-165                   039.in           energy
 040      <PATH1>/MB08-165                   040.in           energy
 041      <PATH1>/MB08-165                   041.in           energy
 042      <PATH1>/MB08-165                   042.in           energy
 043      <PATH1>/MB08-165                   043.in           energy
 044      <PATH1>/MB08-165                   044.in           energy
 045      <PATH1>/MB08-165                   045.in           energy
 046      <PATH1>/MB08-165                   046.in           energy
 047      <PATH1>/MB08-165                   047.in           energy
 048      <PATH1>/MB08-165                   048.in           energy
 049      <PATH1>/MB08-165                   049.in           energy
 050      <PATH1>/MB08-165                   050.in           energy
 051      <PATH1>/MB08-165                   051.in           energy
 052      <PATH1>/MB08-165                   052.in           energy
 053      <PATH1>/MB08-165                   053.in           energy
 054      <PATH1>/MB08-165                   054.in           energy
 055      <PATH1>/MB08-165                   055.in           energy
 056      <PATH1>/MB08-165                   056.in           energy
 057      <PATH1>/MB08-165                   057.in           energy
 058      <PATH1>/MB08-165                   058.in           energy
 059      <PATH1>/MB08-165                   059.in           energy
 060      <PATH1>/MB08-165                   060.in           energy
 061      <PATH1>/MB08-165                   061.in           energy
 062      <PATH1>/MB08-165                   062.in           energy
 063      <PATH1>/MB08-165                   063.in           energy
 064      <PATH1>/MB08-165                   064.in           energy
 065      <PATH1>/MB08-165                   065.in           energy
 066      <PATH1>/MB08-165                   066.in           energy
 067      <PATH1>/MB08-165                   067.in           energy
 068      <PATH1>/MB08-165                   068.in           energy
 069      <PATH1>/MB08-165                   069.in           energy
 070      <PATH1>/MB08-165                   070.in           energy
 071      <PATH1>/MB08-165                   071.in           energy
 072      <PATH1>/MB08-165                   072.in           energy
 073      <PATH1>/MB08-165                   073.in           energy
 074      <PATH1>/MB08-165                   074.in           energy
 075      <PATH1>/MB08-165                   075.in           energy
 076      <PATH1>/MB08-165                   076.in           energy
 077      <PATH1>/MB08-165                   077.in           energy
 078      <PATH1>/MB08-165                   078.in           energy
 079      <PATH1>/MB08-165                   079.in           energy
 080      <PATH1>/MB08-165                   080.in           energy
 081      <PATH1>/MB08-165                   081.in           energy
 082      <PATH1>/MB08-165                   082.in           energy
 083      <PATH1>/MB08-165                   083.in           energy
 084      <PATH1>/MB08-165                   084.in           energy
 085      <PATH1>/MB08-165                   085.in           energy
 086      <PATH1>/MB08-165                   086.in           energy
 087      <PATH1>/MB08-165                   087.in           energy
 088      <PATH1>/MB08-165                   088.in           energy
 089      <PATH1>/MB08-165                   089.in           energy
 090      <PATH1>/MB08-165                   090.in           energy
 091      <PATH1>/MB08-165                   091.in           energy
 092      <PATH1>/MB08-165                   092.in           energy
 093      <PATH1>/MB08-165                   093.in           energy
 094      <PATH1>/MB08-165                   094.in           energy
 095      <PATH1>/MB08-165                   095.in           energy
 096      <PATH1>/MB08-165                   096.in           energy
 097      <PATH1>/MB08-165                   097.in           energy
 098      <PATH1>/MB08-165                   098.in           energy
 099      <PATH1>/MB08-165                   099.in           energy
 100      <PATH1>/MB08-165                   100.in           energy
 101      <PATH1>/MB08-165                   101.in           energy
 102      <PATH1>/MB08-165                   102.in           energy
 103      <PATH1>/MB08-165                   103.in           energy
 104      <PATH1>/MB08-165                   104.in           energy
 105      <PATH1>/MB08-165                   105.in           energy
 106      <PATH1>/MB08-165                   106.in           energy
 107      <PATH1>/MB08-165                   107.in           energy
 108      <PATH1>/MB08-165                   108.in           energy
 109      <PATH1>/MB08-165                   109.in           energy
 110      <PATH1>/MB08-165                   110.in           energy
 111      <PATH1>/MB08-165                   111.in           energy
 112      <PATH1>/MB08-165                   112.in           energy
 113      <PATH1>/MB08-165                   113.in           energy
 114      <PATH1>/MB08-165                   114.in           energy
 115      <PATH1>/MB08-165                   115.in           energy
 116      <PATH1>/MB08-165                   116.in           energy
 117      <PATH1>/MB08-165                   117.in           energy
 118      <PATH1>/MB08-165                   118.in           energy
 119      <PATH1>/MB08-165                   119.in           energy
 120      <PATH1>/MB08-165                   120.in           energy
 121      <PATH1>/MB08-165                   121.in           energy
 122      <PATH1>/MB08-165                   122.in           energy
 123      <PATH1>/MB08-165                   123.in           energy
 124      <PATH1>/MB08-165                   124.in           energy
 125      <PATH1>/MB08-165                   125.in           energy
 126      <PATH1>/MB08-165                   126.in           energy
 127      <PATH1>/MB08-165                   127.in           energy
 128      <PATH1>/MB08-165                   128.in           energy
 129      <PATH1>/MB08-165                   129.in           energy
 130      <PATH1>/MB08-165                   130.in           energy
 131      <PATH1>/MB08-165                   131.in           energy
 132      <PATH1>/MB08-165                   132.in           energy
 133      <PATH1>/MB08-165                   133.in           energy
 134      <PATH1>/MB08-165                   134.in           energy
 135      <PATH1>/MB08-165                   135.in           energy
 136      <PATH1>/MB08-165                   136.in           energy
 137      <PATH1>/MB08-165                   137.in           energy
 138      <PATH1>/MB08-165                   138.in           energy
 139      <PATH1>/MB08-165                   139.in           energy
 140      <PATH1>/MB08-165                   140.in           energy
 141      <PATH1>/MB08-165                   141.in           energy
 142      <PATH1>/MB08-165                   142.in           energy
 143      <PATH1>/MB08-165                   143.in           energy
 144      <PATH1>/MB08-165                   144.in           energy
 145      <PATH1>/MB08-165                   145.in           energy
 146      <PATH1>/MB08-165                   146.in           energy
 147      <PATH1>/MB08-165                   147.in           energy
 148      <PATH1>/MB08-165                   148.in           energy
 149      <PATH1>/MB08-165                   149.in           energy
 150      <PATH1>/MB08-165                   150.in           energy
 151      <PATH1>/MB08-165                   151.in           energy
 152      <PATH1>/MB08-165                   152.in           energy
 153      <PATH1>/MB08-165                   153.in           energy
 154      <PATH1>/MB08-165                   154.in           energy
 155      <PATH1>/MB08-165                   155.in           energy
 156      <PATH1>/MB08-165                   156.in           energy
 157      <PATH1>/MB08-165                   157.in           energy
 158      <PATH1>/MB08-165                   158.in           energy
 159      <PATH1>/MB08-165                   159.in           energy
 160      <PATH1>/MB08-165                   160.in           energy
 161      <PATH1>/MB08-165                   161.in           energy
 162      <PATH1>/MB08-165                   162.in           energy
 163      <PATH1>/MB08-165                   163.in           energy
 164      <PATH1>/MB08-165                   164.in           energy
 165      <PATH1>/MB08-165                   165.in           energy
 166_h    <PATH1>/MB08-165                 166_h.in           energy
 167_li   <PATH1>/MB08-165                167_li.in           energy
 168_be   <PATH1>/MB08-165                168_be.in           energy
 169_b    <PATH1>/MB08-165                 169_b.in           energy
 170_c    <PATH1>/MB08-165                 170_c.in           energy
 171_n    <PATH1>/MB08-165                 171_n.in           energy
 172_o    <PATH1>/MB08-165                 172_o.in           energy
 173_f    <PATH1>/MB08-165                 173_f.in           energy
 174_na   <PATH1>/MB08-165                174_na.in           energy
 175_mg   <PATH1>/MB08-165                175_mg.in           energy
 176_al   <PATH1>/MB08-165                176_al.in           energy
 177_si   <PATH1>/MB08-165                177_si.in           energy
 178_p    <PATH1>/MB08-165                 178_p.in           energy
 179_s    <PATH1>/MB08-165                 179_s.in           energy
 180_cl   <PATH1>/MB08-165                180_cl.in           energy


# Training set for the atomization energy
#              165 is the total number of the energy testing data
#           627.51 is the scale factor from "a.u." to "kcal/mol", 
__energy__ :: 165  627.51
#"Number" "Flag" "Scale"                                                                                  "Ref"      "Weight"
  4    001    -2    170_c     2    172_o    1    166_h    2                                               128.981     1.0000
  5    002    -2    171_n     1    172_o    1    178_p    1    166_h    5                                 10.1995     1.0000
  6    003    -2    166_h    -8    169_b    4    170_c    2    167_li   2    171_n    1                  -64.5198     1.0000
  4    004    -2    168_be    2    179_s    1    166_h    4                                               64.2156     1.0000
  5    005    -2    168_be    2    180_cl   1    171_n    1    166_h    3                                 103.341     1.0000
  6    006    -2    166_h    -4    176_al   2    169_b    2    168_be   2    171_n     1                  94.8625     1.0000
  3    007    -2    177_si    2    166_h    3                                                            -83.7923     1.0000
  4    008    -1    166_h    -2    170_c    2    167_li   1                                              -87.8609     1.0000
  6    009    -2    166_h    -4    176_al   2    169_b    2    168_be   2    173_f     1                  101.855     1.0000
  4    010    -1    174_na    1    172_o    1    166_h    2                                               73.4314     1.0000
  3    011    -2    168_be    2    166_h    5                                                            -69.9266     1.0000
  3    012    -1    169_b     1    166_h    2                                                             6.29251     1.0000
  4    013    -2    168_be    2    178_p    1    166_h    4                                              -7.72743     1.0000
  4    014    -2    167_li    4    172_o    1    166_h    3                                               212.840     1.0000
  4    015    -2    168_be    2    172_o    1    166_h    4                                               167.785     1.0000
  4    016    -1    169_b     1    167_li   1    166_h    1                                               70.6529     1.0000
  5    017    -2    168_be    2    180_cl   1    179_s    1    166_h    3                                 93.7936     1.0000
  3    018    -1    175_mg    1    177_si   1                                                            -2.14101     1.0000
  4    019    -2    169_b     2    175_mg   2    178_p    1                                               79.8097     1.0000
  5    020    -2    169_b     2    173_f    1    167_li   2    166_h    1                                 315.129     1.0000
  6    021    -2    166_h    -7    168_be   2    170_c    4    173_f    1    179_s     1                  145.384     1.0000
  4    022    -2    172_o     1    178_p    1    166_h    6                                               82.0241     1.0000
  3    023    -1    169_b     1    167_li   2                                                             33.4068     1.0000
  4    024    -2    169_b     2    168_be   2    179_s    1                                               166.621     1.0000
  4    025    -2    171_n     1    179_s    1    166_h    6                                              -34.7981     1.0000
  4    026    -1    169_b     1    171_n    1    166_h    1                                              -53.9231     1.0000
  4    027    -1    166_h    -1    170_c    1    177_si   1                                              -64.2575     1.0000
  5    028    -2    169_b     2    173_f    1    172_o    1    166_h    2                                 228.294     1.0000
  6    029    -2    166_h    -2    170_c    2    173_f    1    175_mg   2    172_o     1                  141.522     1.0000
  4    030    -2    168_be    2    171_n    1    166_h    4                                              -5.23890     1.0000
  4    031    -2    169_b     2    173_f    1    166_h    3                                               199.354     1.0000
  7    032    -2    166_h    -7    176_al   2    167_li   4    171_n    1    172_o     1    177_si    2   346.765     1.0000
  5    033    -2    169_b     2    180_cl   1    173_f    1    166_h    2                                 246.838     1.0000
  4    034    -2    170_c     2    173_f    1    167_li   2                                              -9.71568     1.0000
  6    035    -1    166_h    -3    169_b    1    170_c    1    167_li   1    175_mg    1                 -4.91770     1.0000
  5    036    -2    166_h    -1    170_c    2    167_li   2    174_na   2                                -34.4301     1.0000
  5    037    -2    166_h    -5    170_c    2    175_mg   2    177_si   2                                -199.360     1.0000
  6    038    -2    166_h    -2    168_be   2    170_c    2    171_n    1    172_o     1                  41.6549     1.0000
  6    039    -2    166_h    -3    169_b    2    170_c    2    180_cl   1    178_p     1                  25.5228     1.0000
  6    040    -2    166_h    -3    168_be   4    180_cl   1    167_li   2    171_n     2                  144.978     1.0000
  5    041    -2    176_al    2    173_f    2    178_p    1    166_h    1                                 273.134     1.0000
  5    042    -2    169_b     2    173_f    1    167_li   2    166_h    1                                 316.083     1.0000
  6    043    -2    166_h    -3    176_al   2    170_c    2    180_cl   1    179_s     1                  31.8490     1.0000
  3    044    -1    176_al    1    166_h    2                                                             3.75113     1.0000
  4    045    -1    169_b     1    174_na   1    166_h    1                                               65.5461     1.0000
  6    046    -1    166_h    -3    169_b    1    168_be   1    174_na   1    177_si    1                  36.6235     1.0000
  4    047    -2    167_li    2    178_p    1    166_h    5                                               49.5159     1.0000
  5    048    -2    166_h    -2    176_al   2    170_c    2    172_o    1                                 96.3261     1.0000
  4    049    -2    168_be    2    179_s    1    166_h    4                                               93.5031     1.0000
  4    050    -2    176_al    2    180_cl   1    166_h    3                                               62.6219     1.0000
  5    051    -2    173_f     1    167_li   2    171_n    1    166_h    4                                 88.2948     1.0000
  5    052    -2    166_h    -2    169_b    2    170_c    2    179_s    1                                -12.6939     1.0000
  5    053    -2    166_h    -2    169_b    2    170_c    2    172_o    1                                 47.9831     1.0000
  4    054    -2    168_be    4    171_n    1    166_h    1                                               16.9482     1.0000
  6    055    -2    180_cl    1    173_f    1    175_mg   2    179_s    1    166_h     2                  433.664     1.0000
  4    056    -2    173_f     1    167_li   2    166_h    5                                               248.457     1.0000
  4    057    -1    169_b     1    174_na   1    166_h    1                                               65.2968     1.0000
  4    058    -1    167_li    1    171_n    1    166_h    2                                               13.2213     1.0000
  3    059    -2    180_cl    1    166_h    7                                                             49.8152     1.0000
  5    060    -2    169_b     2    173_f    1    171_n    1    166_h    2                                 282.122     1.0000
  4    061    -2    168_be    2    179_s    1    166_h    4                                               96.9399     1.0000
  3    062    -1    174_na    1    166_h    3                                                             2.20915     1.0000
  6    063    -2    166_h    -1    176_al   2    173_f    1    175_mg   2    179_s     1                  331.099     1.0000
  5    064    -2    166_h    -3    170_c    2    171_n    1    177_si   2                                -45.3574     1.0000
  4    065    -2    175_mg    2    172_o    1    166_h    4                                               185.358     1.0000
  4    066    -2    176_al    2    171_n    1    166_h    3                                               7.87624     1.0000
  5    067    -2    166_h    -1    176_al   2    169_b    2    171_n    1                                 133.716     1.0000
  4    068    -2    169_b     2    171_n    1    166_h    3                                               103.749     1.0000
  4    069    -2    173_f     1    171_n    1    166_h    6                                               201.248     1.0000
  5    070    -2    166_h    -1    168_be   2    170_c    2    173_f    1                                 62.5938     1.0000
  5    071    -2    166_h    -2    176_al   2    170_c    2    172_o    1                                 95.3155     1.0000
  4    072    -2    174_na    2    172_o    1    177_si   2                                               148.937     1.0000
  5    073    -1    166_h    -2    169_b    1    168_be   1    170_c    1                                -37.5031     1.0000
  6    074    -1    166_h    -5    169_b    2    168_be   1    167_li   1    177_si    1                  17.3911     1.0000
  5    075    -2    170_c     2    173_f    1    171_n    1    172_o    1                                 32.5568     1.0000
  4    076    -1    169_b     1    167_li   1    166_h    1                                               65.4965     1.0000
  5    077    -2    169_b     2    173_f    1    171_n    2    166_h    1                                 91.6377     1.0000
  4    078    -2    176_al    2    168_be   2    172_o    1                                               225.237     1.0000
  3    079    -2    173_f     1    166_h    7                                                             139.537     1.0000
  6    080    -1    166_h    -3    169_b    1    168_be   1    170_c    1    167_li    1                  37.2200     1.0000
  4    081    -2    167_li    2    178_p    1    166_h    5                                               86.8257     1.0000
  4    082    -2    166_h    -3    170_c    4    171_n    1                                              -120.440     1.0000
  5    083    -2    166_h   -10    170_c    6    173_f    1    167_li   2                                -169.048     1.0000
  3    084    -1    166_h    -1    170_c    2                                                            -18.3432     1.0000
  4    085    -2    166_h    -3    170_c    4    172_o    1                                              -117.717     1.0000
  3    086    -1    169_b     1    166_h    2                                                             6.35849     1.0000
  6    087    -1    166_h    -4    176_al   1    169_b    1    170_c    1    175_mg    1                 -54.4616     1.0000
  5    088    -2    166_h    -9    170_c    6    171_n    1    179_s    1                                -394.886     1.0000
  5    089    -2    166_h    -7    169_b    2    170_c    4    171_n    1                                -200.179     1.0000
  3    090    -2    170_c     2    166_h    3                                                            -108.999     1.0000
  5    091    -2    166_h    -3    169_b    2    170_c    2    172_o    2                                 37.6627     1.0000
  3    092    -1    170_c     1    175_mg   1                                                            -7.84241     1.0000
  5    093    -2    171_n     1    178_p    1    177_si   2    166_h     1                                17.4039     1.0000
  5    094    -2    170_c     2    172_o    1    179_s    1    166_h     1                                44.6214     1.0000
  5    095    -2    166_h   -11    170_c    6    175_mg   2    178_p     1                               -341.816     1.0000
  4    096    -2    166_h    -3    170_c    4    178_p    1                                              -87.7490     1.0000
  4    097    -2    166_h    -3    170_c    4    179_s    1                                              -131.461     1.0000
  4    098    -2    172_o     1    179_s    1    166_h    6                                               181.605     1.0000
  4    099    -2    170_c     2    172_o    1    166_h    2                                               67.8673     1.0000
  4    100    -1    166_h    -3    169_b    1    170_c    2                                              -98.8525     1.0000
  3    101    -2    172_o     1    166_h    7                                                             20.4527     1.0000
  5    102    -2    166_h    -1    170_c    2    175_mg   2    172_o     1                               -10.5301     1.0000
  5    103    -2    166_h    -4    170_c    4    171_n    1    172_o     1                               -171.697     1.0000
  5    104    -2    166_h    -9    170_c    4    167_li   2    177_si    2                               -207.901     1.0000
  4    105    -2    166_h    -3    170_c    4    171_n    1                                              -107.287     1.0000
  5    106    -2    166_h    -4    170_c    4    173_f    1    178_p     1                               -100.917     1.0000
  4    107    -2    170_c     2    171_n    2    166_h    1                                              -124.796     1.0000
  5    108    -2    170_c     2    171_n    1    178_p    1    179_s     1                               -125.960     1.0000
  3    109    -1    171_n     1    166_h    3                                                            -8.47506     1.0000
  4    110    -1    166_h    -5    170_c    3    175_mg   1                                              -187.013     1.0000
  4    111    -2    166_h    -8    170_c    6    171_n    1                                              -362.354     1.0000
  5    112    -2    166_h    -9    170_c    6    172_o    1    178_p     1                               -359.841     1.0000
  6    113    -2    166_h    -8    170_c    4    167_li   2    175_mg    2    172_o    1                  45.4665     1.0000
  5    114    -2    166_h    -2    176_al   2    170_c    2    171_n     1                               -146.899     1.0000
  5    115    -2    170_c     2    171_n    1    172_o    1    166_h     1                               -67.9433     1.0000
  6    116    -2    176_al    2    173_f    1    172_o    1    178_p     1    166_h    1                  275.154     1.0000
  4    117    -2    166_h    -3    170_c    4    173_f    1                                              -25.4577     1.0000
  4    118    -1    176_al    1    172_o    1    166_h    1                                               52.5672     1.0000
  5    119    -2    173_f     1    172_o    1    178_p    1    166_h     5                                241.368     1.0000
  4    120    -2    167_li    2    179_s    1    166_h    5                                               45.1749     1.0000
  4    121    -1    166_h    -3    176_al   1    170_c    2                                              -59.4490     1.0000
  6    122    -2    166_h    -5    170_c    2    172_o    2    178_p     1    177_si   2                  192.865     1.0000
  4    123    -2    170_c     2    171_n    1    166_h    2                                              -125.570     1.0000
  5    124    -2    166_h    -8    170_c    4    178_p    1    177_si    2                               -311.385     1.0000
  6    125    -2    166_h    -1    170_c    2    180_cl   1    167_li    2    179_s    1                  62.6230     1.0000
  5    126    -2    166_h    -2    169_b    2    170_c    2    172_o     1                                60.0493     1.0000
  4    127    -1    166_h    -1    170_c    1    177_si   1                                              -64.1000     1.0000