# The project environment :
#     "ProjDir" specifying the storage DIR of this project
#     "ProjCtrl" = 0 : to run all the jobs
#           = 1 : to fetch result from existed log and chk files
#           = 2 : to run the job without corresponding log or chk files
#       "ProjTool" = "Gaussian" : to run jobs using Gaussian package (default)
#                  = "QChem"    : to run jobs using Q-Chem package
#                "ProjDir"       "ProjCtrl"      "ProjTool"
__project__ ::   ./NBPRC           2             QChem 

# The project description
__title__ ::
"============================== NBPRC set ============================="
"             This is NBPRC subset from GMTKN30 proposed by Grimme     "
"             def2-QZVP is used here                                   "

# $rem group of Q-Chem Package
__qchem__ ::  1  rmp2 # 0 for serial version Q-Chem and 1 for parallel version Q-Chem
$rem
mem_static      = 200
mem_total       = 7500
exchange        = b3lyp
basis           = gen
max_scf_cycles  = 50
scf_convergence = 7
symmetry        = false
xc_grid         = 000075000302                                                               
$end
$basis
H     0 
S   4   1.00
    190.6916900              0.70815167E-03   
     28.6055320              0.54678827E-02   
      6.5095943              0.27966605E-01   
      1.8412455              0.10764538       
S   1   1.00
      0.59853725             1.0000000        
S   1   1.00
      0.21397624             1.0000000        
S   1   1.00
      0.80316286E-01         1.0000000        
P   1   1.00
      2.29200000             1.0000000        
P   1   1.00
      0.83800000             1.0000000        
P   1   1.00
      0.29200000             1.0000000        
D   1   1.00
      2.06200000             1.0000000        
D   1   1.00
      0.66200000             1.0000000        
F   1   1.00
      1.39700000             1.0000000        
****
B     0 
S   8   1.00
  46447.6670560              0.38388681014E-04      
   6957.6889042              0.29836770197E-03      
   1583.4428403              0.15645478806E-02      
    448.46601009             0.65476770742E-02      
    146.28639262             0.23139008388E-01      
     52.784386084            0.69615799357E-01      
     20.519396170            0.17119636876    
      8.4185659258           0.31913191837    
S   2   1.00
     36.510018312            0.78990617244E-01      
     10.541854005            0.78926384265    
S   1   1.00
      3.6004091387           1.0000000        
S   1   1.00
      1.5617023749           1.0000000        
S   1   1.00
      0.44997370775          1.0000000        
S   1   1.00
      0.18075230237          1.0000000        
S   1   1.00
      0.71596696319E-01            1.0000000        
P   5   1.00
     72.240462760            0.86539170411E-03      
     16.807707208            0.68762067365E-02      
      5.2259410747           0.30976687148E-01      
      1.8508350671           0.10432357913    
      0.72206782663          0.26164137577    
P   1   1.00
      0.29491018056          1.0000000        
P   1   1.00
      0.12201141839          1.0000000        
P   1   1.00
      0.49865393625E-01            1.0000000        
D   1   1.00
      1.11000000             1.0000000        
D   1   1.00
      0.40200000             1.0000000        
D   1   1.00
      0.14500000             1.0000000        
F   1   1.00
      0.88200000             1.0000000        
F   1   1.00
      0.31100000             1.0000000        
G   1   1.00
      0.67300000             1.0000000        
****
C     0 
S   8   1.00
  67025.0710290              0.38736308501E-04      
  10039.9865380              0.30107917575E-03      
   2284.9316911              0.15787918095E-02      
    647.14122130             0.66087087195E-02      
    211.09472335             0.23367123250E-01      
     76.177643862            0.70420716898E-01      
     29.633839163            0.17360344953    
     12.187785081            0.32292305648    
S   2   1.00
     53.026006299            0.74897404492E-01      
     15.258502776            0.76136220983    
S   1   1.00
      5.2403957464           1.0000000        
S   1   1.00
      2.2905022379           1.0000000        
S   1   1.00
      0.69673283006          1.0000000        
S   1   1.00
      0.27599337363          1.0000000        
S   1   1.00
      0.10739884389          1.0000000        
P   5   1.00
    105.12555082             0.84647553844E-03      
     24.884461066            0.66274038534E-02      
      7.8637230826           0.30120390419E-01      
      2.8407001835           0.99951435476E-01      
      1.1227137335           0.23826299282    
P   1   1.00
      0.46050725555          1.0000000        
P   1   1.00
      0.18937530913          1.0000000        
P   1   1.00
      0.75983791611E-01            1.0000000        
D   1   1.00
      1.84800000             1.0000000        
D   1   1.00
      0.64900000             1.0000000        
D   1   1.00
      0.22800000             1.0000000        
F   1   1.00
      1.41900000             1.0000000        
F   1   1.00
      0.48500000             1.0000000        
G   1   1.00
      1.01100000             1.0000000        
****
N     0 
S   8   1.00
  90726.8892100              0.39257887368E-04      
  13590.5288010              0.30513316455E-03      
   3092.9883781              0.16000560446E-02      
    875.99876362             0.66982937306E-02      
    285.74469982             0.23690078765E-01      
    103.11913417             0.71455405268E-01      
     40.128556777            0.17632774876    
     16.528095704            0.32677592815    
S   2   1.00
     69.390960983            0.80052094386E-01      
     20.428200596            0.78268063538    
S   1   1.00
      7.1292587972           1.0000000        
S   1   1.00
      3.1324304893           1.0000000        
S   1   1.00
      0.98755778723          1.0000000        
S   1   1.00
      0.38765721307          1.0000000        
S   1   1.00
      0.14909883075          1.0000000        
P   5   1.00
    150.05742670            -0.86216165986E-03      
     35.491599483           -0.68571273236E-02      
     11.247864223           -0.31795688855E-01      
      4.0900305195          -0.10537396822    
      1.6220573146          -0.24519708041    
P   1   1.00
      0.66442261530          1.0000000        
P   1   1.00
      0.27099770070          1.0000000        
P   1   1.00
      0.10688749984          1.0000000        
D   1   1.00
      2.83700000             1.0000000        
D   1   1.00
      0.96800000             1.0000000        
D   1   1.00
      0.33500000             1.0000000        
F   1   1.00
      2.02700000             1.0000000        
F   1   1.00
      0.68500000             1.0000000        
G   1   1.00
      1.42700000             1.0000000        
****
F     0 
S   8   1.00
 132535.9734500              0.47387482743E-04      
  19758.1125880              0.37070120897E-03      
   4485.1996947              0.19450784713E-02      
   1273.8151020              0.80573291994E-02      
    418.93831236             0.27992880781E-01      
    152.55721985             0.82735120175E-01      
     59.821524823            0.19854169012    
     24.819076932            0.34860632233    
S   2   1.00
    100.74446673             0.10505068816    
     30.103728290            0.94068472434    
S   1   1.00
     10.814283272            1.0000000        
S   1   1.00
      4.8172886770           1.0000000        
S   1   1.00
      1.6559334213           1.0000000        
S   1   1.00
      0.64893519582          1.0000000        
S   1   1.00
      0.24778104545          1.0000000        
P   5   1.00
    240.96654114             0.30389933451E-02      
     57.020699781            0.24357738582E-01      
     18.126952120            0.11442925768    
      6.6457404621           0.37064659853    
      2.6375722892           0.79791551766    
P   1   1.00
      1.0638217200           1.0000000        
P   1   1.00
      0.41932562750          1.0000000        
P   1   1.00
      0.15747588299          1.0000000        
D   1   1.00
      5.01400000             1.0000000        
D   1   1.00
      1.72500000             1.0000000        
D   1   1.00
      0.58600000             1.0000000        
F   1   1.00
      3.56200000             1.0000000        
F   1   1.00
      1.14800000             1.0000000        
G   1   1.00
      2.37600000             1.0000000        
****
P     0 
S   10   1.00
 1090561.7138000             0.12142449664E-04      
 163316.3946100              0.94395292614E-04      
  37166.6074510              0.49622262177E-03      
  10526.8809450              0.20900040747E-02      
   3433.9976028              0.75489230025E-02      
   1239.5360480              0.24010423937E-01      
    483.27456199             0.67231473697E-01      
    200.16911586             0.15978669881    
     86.960394829            0.29735906782    
     39.211283369            0.36187171850    
S   3   1.00
    336.75883662             0.19154721050E-01      
    103.72179793             0.17134079100    
     39.771861240            0.63689655985    
S   1   1.00
     17.888612952            1.0000000        
S   1   1.00
      6.9644556879           1.0000000        
S   1   1.00
      3.2198092087           1.0000000        
S   1   1.00
      1.4669943979           1.0000000        
S   1   1.00
      0.47765437532          1.0000000        
S   1   1.00
      0.21637789241          1.0000000        
S   1   1.00
      0.90235894336E-01            1.0000000        
P   8   1.00
   2019.6711374              0.21359172406E-03      
    478.60125090             0.18568771399E-02      
    155.14942504             0.10070690115E-01      
     58.816356575            0.39605153679E-01      
     24.544512785            0.11736067844    
     10.883571061            0.24950540642    
      4.9624791285           0.36421287984    
      2.3002912343           0.31764127123    
P   2   1.00
     59.371345016            0.39432918004    
      3.0694590986          -6.3522960431     
P   1   1.00
      1.0634401739           1.0000000        
P   1   1.00
      0.45022152161          1.0000000        
P   1   1.00
      0.18267271344          1.0000000        
P   1   1.00
      0.71610333771E-01            1.0000000        
D   1   1.00
      3.34300000             1.0000000        
D   1   1.00
      0.807000000            1.0000000        
D   1   1.00
      0.365000000            1.0000000        
D   1   1.00
      0.154000000            1.0000000        
F   1   1.00
      0.280000000            1.0000000        
F   1   1.00
      0.703000000            1.0000000        
G   1   1.00
      0.597000000            1.0000000        
****
Cl     0 
S   10   1.00
 1467459.0095000             0.11478257194E-04      
 219756.1643300              0.89234299775E-04      
  50010.7703010              0.46911086186E-03      
  14164.8239180              0.19762446133E-02      
   4620.7465525              0.71419937783E-02      
   1667.8991635              0.22753219445E-01      
    650.29199265             0.63959782953E-01      
    269.38037376             0.15331059238    
    117.06752106             0.28986952417    
     52.811766843            0.36348071452    
S   3   1.00
    461.42769988             0.18019457578E-01      
    142.12665355             0.16489442314    
     54.437838768            0.63891587584    
S   1   1.00
     24.160770219            1.0000000        
S   1   1.00
      9.7083540306           1.0000000        
S   1   1.00
      4.5640696733           1.0000000        
S   1   1.00
      2.1194744832           1.0000000        
S   1   1.00
      0.75722365394          1.0000000        
S   1   1.00
      0.33747224597          1.0000000        
S   1   1.00
      0.13860775149          1.0000000        
P   8   1.00
   2501.9457890              0.24242618410E-03      
    592.88059285             0.21079961749E-02      
    192.18089186             0.11432693869E-01      
     72.875710488            0.44956698060E-01      
     30.436358370            0.13197476145    
     13.490178902            0.27493639225    
      6.1478071413           0.38347236372    
      2.8450944820           0.28871943885    
P   2   1.00
    105.39397936            -0.34311760144E-01      
      6.7369738513           0.64060818902    
P   1   1.00
      1.2421095772           1.0000000        
P   1   1.00
      0.55669714254          1.0000000        
P   1   1.00
      0.23387801464          1.0000000        
P   1   1.00
      0.93164490890E-01            1.0000000        
D   1   1.00
      5.19100000             1.0000000        
D   1   1.00
      1.27600000             1.0000000        
D   1   1.00
      0.583000000            1.0000000        
D   1   1.00
      0.243000000            1.0000000        
F   1   1.00
      0.423000000            1.0000000        
F   1   1.00
      1.08900000             1.0000000        
G   1   1.00
      0.827000000            1.0000000        
****
$end


# Specify <MacroPath> to be used in the batch
__macro_path__  ::
<PATH1> = '.'

# The molecular set to batch: 
#                21 is the total number of jobs in this batch list
__batch__ :: 21
#"Flag"         "DIR"                        "InpName"       "JobType"
      BCl3      <PATH1>/NBPRC                 BCl3.in        energy
  BCl3PMe3      <PATH1>/NBPRC             BCl3PMe3.in        energy
       BF3      <PATH1>/NBPRC                  BF3.in        energy
   BF3PMe3      <PATH1>/NBPRC              BF3PMe3.in        energy
       bh3      <PATH1>/NBPRC                  bh3.in        energy
       BH3      <PATH1>/NBPRC                  BH3.in        energy
    BH3PH3      <PATH1>/NBPRC               BH3PH3.in        energy
        bz      <PATH1>/NBPRC                   bz.in        energy
      cbut      <PATH1>/NBPRC                 cbut.in        energy
        ch      <PATH1>/NBPRC                   ch.in        energy
        h2      <PATH1>/NBPRC                   h2.in        energy
        H2      <PATH1>/NBPRC                   H2.in        energy
      K_Cl      <PATH1>/NBPRC                 K_Cl.in        energy
       K_F      <PATH1>/NBPRC                  K_F.in        energy
       K_H      <PATH1>/NBPRC                  K_H.in        energy
   nh2-bh2      <PATH1>/NBPRC              nh2-bh2.in        energy
   nh3-bh3      <PATH1>/NBPRC              nh3-bh3.in        energy
       nh3      <PATH1>/NBPRC                  nh3.in        energy
     nh-bh      <PATH1>/NBPRC                nh-bh.in        energy
       PH3      <PATH1>/NBPRC                  PH3.in        energy
      PMe3      <PATH1>/NBPRC                 PMe3.in        energy



# Training set for the atomization energy
#               12 is the total number of the energy testing data
#           627.51 is the scale factor from "a.u." to "kcal/mol", 
__energy__ :: 12  627.51
#"Number" "Flag"      "Scale"                                 "Ref"      "Weight"
  3    nh3        -1    bh3         -1     nh3-bh3      1     -31.84     1.000
  3    nh3-bh3    -1    nh2-bh2      1     h2           1      -0.06     1.000
  3    nh2-bh2    -1    nh-bh        1     h2           1      37.27     1.000
  2    nh2-bh2    -2    cbut         1                        -18.94     1.000
  3    nh2-bh2    -3    bz           1     h2           3     -48.27     1.000
  2    nh2-bh2    -3    ch           1                        -45.06     1.000
  3    BH3PH3      1    BH3         -1     PH3         -1     -24.40     1.000
  3    K_H         1    BH3PH3      -1     H2          -1      40.40     1.000
  3    BF3PMe3     1    BF3         -1     PMe3        -1     -14.60     1.000
  3    K_F         1    BF3PMe3     -1     H2          -1      18.80     1.000
  3    BCl3PMe3    1    BCl3        -1     PMe3        -1     -30.80     1.000
  3    K_Cl        1    BCl3PMe3    -1     H2          -1      17.60     1.000

