# The project environment :
#     "ProjDir" specifying the storage DIR of this project
#     "ProjCtrl" = 0 : to run all the jobs
#           = 1 : to fetch result from existed log and chk files
#           = 2 : to run the job without corresponding log or chk files
#       "ProjTool" = "Gaussian" : to run jobs using Gaussian package (default)
#                  = "QChem"    : to run jobs using Q-Chem package
#                "ProjDir"       "ProjCtrl"      "ProjTool"
__project__ ::   ./PA             2               QChem

# The project description
__title__ ::
"============================== PA set ============================="
"             This is PA subset from GMTKN30 proposed by Grimme     "
"             def2-QZVP is used here                                "

# $rem group of Q-Chem Package
__qchem__ ::  1  rmp2 # 0 for serial version Q-Chem and 1 for parallel version Q-Chem
$rem
mem_static      = 200
mem_total       = 7500
exchange        = b3lyp
basis           = gen
max_scf_cycles  = 50
scf_convergence = 7
symmetry        = false
xc_grid         = 000075000302                                                               
$end
$basis
H     0 
S   4   1.00
    190.6916900              0.70815167E-03   
     28.6055320              0.54678827E-02   
      6.5095943              0.27966605E-01   
      1.8412455              0.10764538       
S   1   1.00
      0.59853725             1.0000000        
S   1   1.00
      0.21397624             1.0000000        
S   1   1.00
      0.80316286E-01         1.0000000        
P   1   1.00
      2.29200000             1.0000000        
P   1   1.00
      0.83800000             1.0000000        
P   1   1.00
      0.29200000             1.0000000        
D   1   1.00
      2.06200000             1.0000000        
D   1   1.00
      0.66200000             1.0000000        
F   1   1.00
      1.39700000             1.0000000        
****
C     0 
S   8   1.00
  67025.0710290              0.38736308501E-04      
  10039.9865380              0.30107917575E-03      
   2284.9316911              0.15787918095E-02      
    647.14122130             0.66087087195E-02      
    211.09472335             0.23367123250E-01      
     76.177643862            0.70420716898E-01      
     29.633839163            0.17360344953    
     12.187785081            0.32292305648    
S   2   1.00
     53.026006299            0.74897404492E-01      
     15.258502776            0.76136220983    
S   1   1.00
      5.2403957464           1.0000000        
S   1   1.00
      2.2905022379           1.0000000        
S   1   1.00
      0.69673283006          1.0000000        
S   1   1.00
      0.27599337363          1.0000000        
S   1   1.00
      0.10739884389          1.0000000        
P   5   1.00
    105.12555082             0.84647553844E-03      
     24.884461066            0.66274038534E-02      
      7.8637230826           0.30120390419E-01      
      2.8407001835           0.99951435476E-01      
      1.1227137335           0.23826299282    
P   1   1.00
      0.46050725555          1.0000000        
P   1   1.00
      0.18937530913          1.0000000        
P   1   1.00
      0.75983791611E-01            1.0000000        
D   1   1.00
      1.84800000             1.0000000        
D   1   1.00
      0.64900000             1.0000000        
D   1   1.00
      0.22800000             1.0000000        
F   1   1.00
      1.41900000             1.0000000        
F   1   1.00
      0.48500000             1.0000000        
G   1   1.00
      1.01100000             1.0000000        
****
N     0 
S   8   1.00
  90726.8892100              0.39257887368E-04      
  13590.5288010              0.30513316455E-03      
   3092.9883781              0.16000560446E-02      
    875.99876362             0.66982937306E-02      
    285.74469982             0.23690078765E-01      
    103.11913417             0.71455405268E-01      
     40.128556777            0.17632774876    
     16.528095704            0.32677592815    
S   2   1.00
     69.390960983            0.80052094386E-01      
     20.428200596            0.78268063538    
S   1   1.00
      7.1292587972           1.0000000        
S   1   1.00
      3.1324304893           1.0000000        
S   1   1.00
      0.98755778723          1.0000000        
S   1   1.00
      0.38765721307          1.0000000        
S   1   1.00
      0.14909883075          1.0000000        
P   5   1.00
    150.05742670            -0.86216165986E-03      
     35.491599483           -0.68571273236E-02      
     11.247864223           -0.31795688855E-01      
      4.0900305195          -0.10537396822    
      1.6220573146          -0.24519708041    
P   1   1.00
      0.66442261530          1.0000000        
P   1   1.00
      0.27099770070          1.0000000        
P   1   1.00
      0.10688749984          1.0000000        
D   1   1.00
      2.83700000             1.0000000        
D   1   1.00
      0.96800000             1.0000000        
D   1   1.00
      0.33500000             1.0000000        
F   1   1.00
      2.02700000             1.0000000        
F   1   1.00
      0.68500000             1.0000000        
G   1   1.00
      1.42700000             1.0000000        
****
O     0 
S   8   1.00
 116506.4690800              0.40383857939E-04      
  17504.3497240              0.31255139004E-03      
   3993.4513230              0.16341473495E-02      
   1133.0063186              0.68283224757E-02      
    369.99569594             0.24124410221E-01      
    133.62074349             0.72730206154E-01      
     52.035643649            0.17934429892    
     21.461939313            0.33059588895    
S   2   1.00
     89.835051252            0.96468652996E-01      
     26.428010844            0.94117481120    
S   1   1.00
      9.2822824649           1.0000000        
S   1   1.00
      4.0947728533           1.0000000        
S   1   1.00
      1.3255349078           1.0000000        
S   1   1.00
      0.51877230787          1.0000000        
S   1   1.00
      0.19772676454          1.0000000        
P   5   1.00
    191.15255810             0.25115697705E-02      
     45.233356739            0.20039240864E-01      
     14.353465922            0.93609064762E-01      
      5.2422371832           0.30618127124    
      2.0792418599           0.67810501439    
P   1   1.00
      0.84282371424          1.0000000        
P   1   1.00
      0.33617694891          1.0000000        
P   1   1.00
      0.12863997974          1.0000000        
D   1   1.00
      3.77500000             1.0000000        
D   1   1.00
      1.30000000             1.0000000        
D   1   1.00
      0.44400000             1.0000000        
F   1   1.00
      2.66600000             1.0000000        
F   1   1.00
      0.85900000             1.0000000        
G   1   1.00
      1.84600000             1.0000000        
****
Si     0 
S   10   1.00
 918070.6956500              0.12658787192E-04      
 137485.2538600              0.98408387461E-04      
  31287.7727140              0.51731398244E-03      
   8861.6105697              0.21785441933E-02      
   2890.6943156              0.78656853716E-02      
   1043.4063979              0.24987553674E-01      
    406.80160276             0.69761818844E-01      
    168.48360207             0.16473362733    
     73.185628823            0.30285602647    
     32.998485420            0.36007260439    
S   3   1.00
    278.78751325             0.20185463814E-01      
     85.910228722            0.17720406747    
     32.992604031            0.63587860906    
S   1   1.00
     15.033693254            1.0000000        
S   1   1.00
      5.7257514773           1.0000000        
S   1   1.00
      2.6146521029           1.0000000        
S   1   1.00
      1.1757833152           1.0000000        
S   1   1.00
      0.35432330868          1.0000000        
S   1   1.00
      0.16248335806          1.0000000        
S   1   1.00
      0.68332457181E-01            1.0000000        
P   8   1.00
   1775.8850516              0.20186971126E-03      
    420.83786849             0.17544314655E-02      
    136.42290243             0.95039532290E-02      
     51.700991737            0.37325741590E-01      
     21.559456002            0.11085396329    
      9.5559200095           0.23756407046    
      4.3529819473           0.35295783750    
      2.0096964381           0.32885931947    
P   2   1.00
     46.418153780            0.25858819154E-01      
      1.9076417796          -0.59874865899    
P   1   1.00
      0.92337221587          1.0000000        
P   1   1.00
      0.34515720370          1.0000000        
P   1   1.00
      0.13656834761          1.0000000        
P   1   1.00
      0.52987060586E-01            1.0000000        
D   1   1.00
      2.64500000             1.0000000        
D   1   1.00
      0.608000000            1.0000000        
D   1   1.00
      0.272000000            1.0000000        
D   1   1.00
      0.113000000            1.0000000        
F   1   1.00
      0.212000000            1.0000000        
F   1   1.00
      0.541000000            1.0000000        
G   1   1.00
      0.461000000            1.0000000        
****
P     0 
S   10   1.00
 1090561.7138000             0.12142449664E-04      
 163316.3946100              0.94395292614E-04      
  37166.6074510              0.49622262177E-03      
  10526.8809450              0.20900040747E-02      
   3433.9976028              0.75489230025E-02      
   1239.5360480              0.24010423937E-01      
    483.27456199             0.67231473697E-01      
    200.16911586             0.15978669881    
     86.960394829            0.29735906782    
     39.211283369            0.36187171850    
S   3   1.00
    336.75883662             0.19154721050E-01      
    103.72179793             0.17134079100    
     39.771861240            0.63689655985    
S   1   1.00
     17.888612952            1.0000000        
S   1   1.00
      6.9644556879           1.0000000        
S   1   1.00
      3.2198092087           1.0000000        
S   1   1.00
      1.4669943979           1.0000000        
S   1   1.00
      0.47765437532          1.0000000        
S   1   1.00
      0.21637789241          1.0000000        
S   1   1.00
      0.90235894336E-01            1.0000000        
P   8   1.00
   2019.6711374              0.21359172406E-03      
    478.60125090             0.18568771399E-02      
    155.14942504             0.10070690115E-01      
     58.816356575            0.39605153679E-01      
     24.544512785            0.11736067844    
     10.883571061            0.24950540642    
      4.9624791285           0.36421287984    
      2.3002912343           0.31764127123    
P   2   1.00
     59.371345016            0.39432918004    
      3.0694590986          -6.3522960431     
P   1   1.00
      1.0634401739           1.0000000        
P   1   1.00
      0.45022152161          1.0000000        
P   1   1.00
      0.18267271344          1.0000000        
P   1   1.00
      0.71610333771E-01            1.0000000        
D   1   1.00
      3.34300000             1.0000000        
D   1   1.00
      0.807000000            1.0000000        
D   1   1.00
      0.365000000            1.0000000        
D   1   1.00
      0.154000000            1.0000000        
F   1   1.00
      0.280000000            1.0000000        
F   1   1.00
      0.703000000            1.0000000        
G   1   1.00
      0.597000000            1.0000000        
****
S     0 
S   10   1.00
 1273410.9023000             0.11767088246E-04      
 190697.8300700              0.91478610166E-04      
  43397.8853300              0.48090078640E-03      
  12291.8096770              0.20257193592E-02      
   4009.7420824              0.73190096406E-02      
   1447.3531030              0.23300499900E-01      
    564.30102913             0.65386213610E-01      
    233.74506243             0.15614449910    
    101.56402814             0.29318563787    
     45.805907187            0.36287914289    
S   3   1.00
    394.27281503             0.18753305081E-01      
    121.72249591             0.16870726663    
     46.754125963            0.63806830653    
S   1   1.00
     20.923008254            1.0000000        
S   1   1.00
      8.2685567800           1.0000000        
S   1   1.00
      3.8629345671           1.0000000        
S   1   1.00
      1.7794684781           1.0000000        
S   1   1.00
      0.61064260103          1.0000000        
S   1   1.00
      0.27412269445          1.0000000        
S   1   1.00
      0.11325939107          1.0000000        
P   8   1.00
   2189.8930459              0.23912552864E-03      
    518.94596592             0.20772032158E-02      
    168.19560151             0.11242420571E-01      
     63.745282788            0.44069933941E-01      
     26.597033077            0.12918778608    
     11.774251449            0.26910820167    
      5.3534379024           0.37855928620    
      2.4701911802           0.29692134655    
P   2   1.00
     82.120288349           -0.39420318847E-01      
      4.9523532869           0.64048403090    
P   1   1.00
      1.0828262029           1.0000000        
P   1   1.00
      0.49271277356          1.0000000        
P   1   1.00
      0.20483450942          1.0000000        
P   1   1.00
      0.80743615716E-01            1.0000000        
D   1   1.00
      4.15900000             1.0000000        
D   1   1.00
      1.01900000             1.0000000        
D   1   1.00
      0.464000000            1.0000000        
D   1   1.00
      0.194000000            1.0000000        
F   1   1.00
      0.335000000            1.0000000        
F   1   1.00
      0.869000000            1.0000000        
G   1   1.00
      0.683000000            1.0000000        
****
Cl     0 
S   10   1.00
 1467459.0095000             0.11478257194E-04      
 219756.1643300              0.89234299775E-04      
  50010.7703010              0.46911086186E-03      
  14164.8239180              0.19762446133E-02      
   4620.7465525              0.71419937783E-02      
   1667.8991635              0.22753219445E-01      
    650.29199265             0.63959782953E-01      
    269.38037376             0.15331059238    
    117.06752106             0.28986952417    
     52.811766843            0.36348071452    
S   3   1.00
    461.42769988             0.18019457578E-01      
    142.12665355             0.16489442314    
     54.437838768            0.63891587584    
S   1   1.00
     24.160770219            1.0000000        
S   1   1.00
      9.7083540306           1.0000000        
S   1   1.00
      4.5640696733           1.0000000        
S   1   1.00
      2.1194744832           1.0000000        
S   1   1.00
      0.75722365394          1.0000000        
S   1   1.00
      0.33747224597          1.0000000        
S   1   1.00
      0.13860775149          1.0000000        
P   8   1.00
   2501.9457890              0.24242618410E-03      
    592.88059285             0.21079961749E-02      
    192.18089186             0.11432693869E-01      
     72.875710488            0.44956698060E-01      
     30.436358370            0.13197476145    
     13.490178902            0.27493639225    
      6.1478071413           0.38347236372    
      2.8450944820           0.28871943885    
P   2   1.00
    105.39397936            -0.34311760144E-01      
      6.7369738513           0.64060818902    
P   1   1.00
      1.2421095772           1.0000000        
P   1   1.00
      0.55669714254          1.0000000        
P   1   1.00
      0.23387801464          1.0000000        
P   1   1.00
      0.93164490890E-01            1.0000000        
D   1   1.00
      5.19100000             1.0000000        
D   1   1.00
      1.27600000             1.0000000        
D   1   1.00
      0.583000000            1.0000000        
D   1   1.00
      0.243000000            1.0000000        
F   1   1.00
      0.423000000            1.0000000        
F   1   1.00
      1.08900000             1.0000000        
G   1   1.00
      0.827000000            1.0000000        
****
$end


# Specify <MacroPath> to be used in the batch
__macro_path__  ::
<PATH1> = '.'

# The molecular set to batch: 
#                24 is the total number of jobs in this batch list
__batch__ :: 24
#"Flag"         "DIR"                        "InpName"       "JobType"
 c2h2           <PATH1>/PA                   c2h2.in         energy
c2h2p           <PATH1>/PA                  c2h2p.in         energy
   h2           <PATH1>/PA                     h2.in         energy
  h2o           <PATH1>/PA                    h2o.in         energy
 h2op           <PATH1>/PA                   h2op.in         energy
  h2p           <PATH1>/PA                    h2p.in         energy
  h2s           <PATH1>/PA                    h2s.in         energy
 h2sp           <PATH1>/PA                   h2sp.in         energy
  hcl           <PATH1>/PA                    hcl.in         energy
 hclp           <PATH1>/PA                   hclp.in         energy
  nh3           <PATH1>/PA                    nh3.in         energy
 nh3p           <PATH1>/PA                   nh3p.in         energy
   p2           <PATH1>/PA                     p2.in         energy
  p2p           <PATH1>/PA                    p2p.in         energy
   p4           <PATH1>/PA                     p4.in         energy
  p4p           <PATH1>/PA                    p4p.in         energy
   p6           <PATH1>/PA                     p6.in         energy
  p6p           <PATH1>/PA                    p6p.in         energy
   p8           <PATH1>/PA                     p8.in         energy
  p8p           <PATH1>/PA                    p8p.in         energy
  ph3           <PATH1>/PA                    ph3.in         energy
 ph3p           <PATH1>/PA                   ph3p.in         energy
 sih4           <PATH1>/PA                   sih4.in         energy
sih4p           <PATH1>/PA                  sih4p.in         energy


# Training set for the atomization energy
#               12 is the total number of the energy testing data
#           627.51 is the scale factor from "a.u." to "kcal/mol", 
__energy__ :: 12  627.51
#"Number" "Flag"      "Scale"                                 "Ref"      "Weight"
  2        p2          1          p2p            -1           167.8       1.00
  2        p4          1          p4p            -1           193.4       1.00
  2        p6          1          p6p            -1           209.7       1.00
  2        p8          1          p8p            -1           219.7       1.00
  2        nh3         1          nh3p           -1           211.9       1.00
  2        h2o         1          h2op           -1           171.6       1.00
  2        c2h2        1          c2h2p          -1           157.4       1.00
  2        sih4        1          sih4p          -1           156.8       1.00
  2        ph3         1          ph3p           -1           192.7       1.00
  2        h2s         1          h2sp           -1           174.2       1.00
  2        hcl         1          hclp           -1           137.8       1.00
  2        h2          1          h2p            -1           106.3       1.00

 


