# The project environment :
#     "ProjDir" specifying the storage DIR of this project
#     "ProjCtrl" = 0 : to run all the jobs
#           = 1 : to fetch result from existed log and chk files
#           = 2 : to run the job without corresponding log or chk files
#       "ProjTool" = "Gaussian" : to run jobs using Gaussian package (default)
#                  = "QChem"    : to run jobs using Q-Chem package
#                "ProjDir"       "ProjCtrl"      "ProjTool"
__project__ ::   ./RG6           2              QChem

# The project description
__title__ ::
"============================== RG6 set ============================="
"             This is RG6 subset from GMTKN30 proposed by Grimme     "
"             def2-QZVP basis is used here                           "

# $rem group of Q-Chem Package
__qchem__ ::  1  rmp2 # 0 for serial version Q-Chem and 1 for parallel version Q-Chem
$rem
mem_static = 200
mem_total  = 7500
exchange = b3lyp
basis = gen
ecp   = gen
max_scf_cycles = 50
scf_convergence = 7
symmetry = false
xc_grid = 000075000302
$end
$basis
  Xe     0 
  S   9   1.00
    18774.3000000              0.68000000000E-04      
     2824.8100000              0.50100000000E-03      
      640.08800000             0.20970000000E-02      
      172.61600000             0.44930000000E-02      
       29.516900000           -0.47151000000E-01      
       18.444800000            0.37403300000    
       11.523800000           -0.51282600000    
        6.6189000000          -0.47862400000    
        2.9955200000           0.59647100000    
  S   3   1.00
      27.052171835             0.11189611954    
      20.940622415            -0.24055422724    
       6.0024591071            0.51452076187    
  S   1   1.00
       1.6532586536            1.0000000        
S   1   1.00
       0.87553889270           1.0000000        
  S   1   1.00
       0.41033616654           1.0000000        
S   1   1.00
       0.19493585779           1.0000000        
  S   1   1.00
       0.90171093041E-01       1.0000000        
P   7   1.00
     613.33100000              0.13800000000E-03      
     141.71000000              0.85300000000E-03      
      20.310600000             0.55024000000E-01      
      11.033100000            -0.25298800000    
       6.8951300000            0.97460000000E-02      
       3.2416600000            0.52679700000    
       1.6653500000            0.50183200000    
P   3   1.00
     18.388908413           -0.24514446229E-01      
       6.1139045431           0.25265669670    
         1.8729815691           0.72938328969    
 P   1   1.00
       0.82004665991          1.0000000        
   P   1   1.00
         0.39552648254          1.0000000        
 P   1   1.00
       0.17445509815          1.0000000        
   P   1   1.00
         0.73389992663E-01            1.0000000        
 D   8   1.00
     315.66106865             0.14235585191E-03      
      95.553873651            0.11707875751E-02      
       35.451236301            0.58783160362E-02      
        13.153211283           -0.16764226287E-01      
      6.3847329564           0.11558421625    
        3.6968166410           0.30375919653    
      2.0976070364           0.36037726827    
        1.1951246616           0.24813434400    
D   1   1.00
      0.68431725339          1.0000000        
  D   1   1.00
        0.37710480204          1.0000000        
D   1   1.00
      0.16760000000          1.0000000        
  F   1   1.00
        0.661900000            1.0000000        
F   1   1.00
      0.297900000            1.0000000        
  F   1   1.00
        2.4323000000           1.0000000        
F   1   1.00
      7.2077391789           1.0000000        
  G   1   1.00
        0.527800000            1.0000000        
****
Rn     0 
S   9   1.00
  12715.6000000              0.47000000000E-04      
     1913.3000000              0.33800000000E-03      
     429.95600000             0.12800000000E-02      
     100.97800000             0.27820000000E-02      
      24.470800000           -0.10042100000    
       15.292200000            0.53982400000    
         9.5548300000          -0.57385600000    
       5.9666100000          -0.61000000000    
         2.3893900000           0.79325300000    
 S   3   1.00
      17.195195341            0.16333005101    
       14.230303720           -0.27167744770    
         3.0760339153           0.52372666490    
 S   1   1.00
       1.3276477516           1.0000000        
   S   1   1.00
         0.69973866760          1.0000000        
 S   1   1.00
       0.33174234887          1.0000000        
   S   1   1.00
         0.16093431878          1.0000000        
 S   1   1.00
       0.75883596172E-01            1.0000000        
   P   7   1.00
       131.70800000             0.58500000000E-03      
        21.401600000           -0.14438000000E-01      
     13.382600000            0.17009500000    
       8.3688000000          -0.42250400000    
         5.2294500000          -0.17190000000E-02      
       2.4768500000           0.60115800000    
         1.3018000000           0.49278000000    
 P   3   1.00
       9.0768547920          -0.23950411879    
         8.3822367043           0.28554010268    
       0.70618692299          0.46017587936    
   P   1   1.00
         0.64553860374          1.0000000        
 P   1   1.00
       0.28380500916          1.0000000        
   P   1   1.00
         0.13160518578          1.0000000        
 P   1   1.00
       0.58958259826E-01            1.0000000        
   D   8   1.00
       183.73000000             0.12900000000E-03      
        54.689700000            0.94900000000E-03      
     16.425500000            0.10100000000E-01      
       7.3050000000          -0.87309000000E-01      
         4.2747700000           0.71452000000E-01      
       2.6114200000           0.29537800000    
         1.5667400000           0.35873100000    
       0.96097900000          0.25612000000    
   D   1   1.00
         0.59653500000          1.0000000        
 D   1   1.00
       0.34202800000          1.0000000        
   D   1   1.00
         0.15160000000          1.0000000        
 F   1   1.00
       0.594000000            1.0000000        
   F   1   1.00
         0.268400000            1.0000000        
 F   1   1.00
       1.5556400000           1.0000000        
   F   1   1.00
         3.2498641894           1.0000000        
 G   1   1.00
       0.476300000            1.0000000        
   ****
$end
$ecp
  XE     0
  XE-ECP     3     28
 f-ul potential
  4
  2     20.88155700           -23.08929500       
  2     20.78344300           -30.07447500       
  2      5.25338900            -0.28822700       
  2      5.36118800            -0.38692400       
 s-ul potential
  7
  2     40.00518400            49.99796200       
  2     17.81221400           281.01330300       
  2      9.30415000            61.53825500       
  2     20.88155700            23.08929500       
  2     20.78344300            30.07447500       
  2      5.25338900             0.28822700       
  2      5.36118800             0.38692400       
 p-ul potential
  8
  2     15.70177200            67.43914200       
  2     15.25860800           134.87471100       
  2      9.29218400            14.66330000       
  2      8.55900300            29.35473000       
  2     20.88155700            23.08929500       
  2     20.78344300            30.07447500       
  2      5.25338900             0.28822700       
  2      5.36118800             0.38692400       
 d-ul potential
  10
  2     15.18560000            35.43690800       
  2     14.28450000            53.19577200       
  2      7.12188900             9.04623200       
  2      6.99196300            13.22368100       
  2      0.62394600             0.08485300       
  2      0.64728400             0.04415500       
  2     20.88155700            23.08929500       
  2     20.78344300            30.07447500       
  2      5.25338900             0.28822700       
  2      5.36118800             0.38692400       
 ****
  RN     0
  RN-ECP     3     60
 f potential
  4
  2      6.34857100            21.79729000       
  2      6.29594900            28.94680500       
  2      2.88211800             1.44736500       
  2      2.90804800             2.17796400       
 s-f potential
  7
  2     30.15124200            49.96555100       
  2     14.52124100           283.07000000       
  2      8.05203800            62.00287000       
  2      6.34857100           -21.79729000       
  2      6.29594900           -28.94680500       
  2      2.88211800            -1.44736500       
  2      2.90804800            -2.17796400       
 p-f potential
  8
  2     11.00994200            71.96911900       
  2      9.61762500           143.86055900       
  2      7.33600800             4.71476100       
  2      6.40625300             9.01306500       
  2      6.34857100           -21.79729000       
  2      6.29594900           -28.94680500       
  2      2.88211800            -1.44736500       
  2      2.90804800            -2.17796400       
 d-f potential
  8
  2      8.36922000            36.36836500       
  2      8.11697500            54.55176100       
  2      5.35365600             9.63448700       
  2      5.09721200            14.38790200       
  2      6.34857100           -21.79729000       
  2      6.29594900           -28.94680500       
  2      2.88211800            -1.44736500       
  2      2.90804800            -2.17796400       
****
$end

# Specify <MacroPath> to be used in the batch
__macro_path__  ::
<PATH1> = '.'

# The molecular set to batch: 
#                5 is the total number of jobs in this batch list
__batch__ :: 5
#"Flag"         "DIR"                        "InpName"       "JobType"
 rn             <PATH1>/RG6                   rn.in            energy
 rn_2           <PATH1>/RG6                 rn_2.in            energy
 xe             <PATH1>/RG6                   xe.in            energy
 xe_2           <PATH1>/RG6                 rx_2.in            energy
 rnxe           <PATH1>/RG6                 rnxe.in            energy


# Training set for the atomization energy
#               3 is the total number of the energy testing data
#           627.51 is the scale factor from "a.u." to "kcal/mol", 
__energy__ :: 3  627.51
#"Number" "Flag" "Scale"                                           "Ref"      "Weight"
  2        xe_2       -1       xe        2                         0.56       1.0
  3        rnxe       -1       rn        1         xe      1       0.65       1.0
  2        rn_2       -1       rn        2                         0.79       1.0 
