# The project environment :
#     "ProjDir" specifying the storage DIR of this project
#     "ProjCtrl" = 0 : to run all the jobs
#           = 1 : to fetch result from existed log and chk files
#           = 2 : to run the job without corresponding log or chk files
#       "ProjTool" = "Gaussian" : to run jobs using Gaussian package (default)
#                  = "QChem"    : to run jobs using Q-Chem package
#                "ProjDir"       "ProjCtrl"      "ProjTool"
__project__ ::   ./RG6           2              QChem

# The project description
__title__ ::
"============================== RG6 set ============================="
"             This is RG6 subset from GMTKN30 proposed by Grimme     "
"             ECP = def2-QZVP from EMSL                              "
"             G function has been removed for Xe and Rn              "
"             as Q-Chem can not handle G function with ECP           "

# $rem group of Q-Chem Package
__qchem__ ::  1  rmp2 # 0 for serial version Q-Chem and 1 for parallel version Q-Chem
$rem
mem_static      = 200
mem_total       = 7500
exchange        = b3lyp
basis           = gen
ecp             = gen
max_scf_cycles  = 50
scf_convergence = 7
symmetry        = false
xc_grid         = 000075000302
$end
$basis
Ne     0 
S   8   1.00
 160676.2795500              0.47387482743E-04      
  23953.1950390              0.37070120897E-03      
   5437.5063711              0.19450784713E-02      
   1544.2741024              0.80573291994E-02      
    507.88814269             0.27992880781E-01      
    184.94847750             0.82735120175E-01      
     72.522952039            0.19854169012    
     30.088713575            0.34860632233    
S   2   1.00
    120.68434940             0.10400597014    
     36.074294857            0.91999988986    
S   1   1.00
     13.052091210            1.0000000        
S   1   1.00
      5.7974783353           1.0000000        
S   1   1.00
      2.0478626895           1.0000000        
S   1   1.00
      0.80214571994          1.0000000        
S   1   1.00
      0.30548672205          1.0000000        
P   6   1.00
    498.43397466             0.43118261050E-03      
    118.14109217             0.36206397703E-02      
     38.032529735            0.18245344081E-01      
     14.183731950            0.65133035572E-01      
      5.7864190721           0.16708915089    
      2.4599622160           0.29268019613    
P   1   1.00
      1.0421999498           1.0000000        
P   1   1.00
      0.42987748916          1.0000000        
P   1   1.00
      0.16889708453          1.0000000        
D   1   1.00
      6.47100000             1.0000000        
D   1   1.00
      2.21300000             1.0000000        
D   1   1.00
      0.74700000             1.0000000        
F   1   1.00
      4.65700000             1.0000000        
F   1   1.00
      1.52400000             1.0000000        
G   1   1.00
      2.98300000             1.0000000        
****
Ar     0 
S   10   1.00
 1673421.9494000             0.11245990413E-04      
 250601.7537300              0.87428115798E-04      
  57030.9121200              0.45961641275E-03      
  16153.3039150              0.19363890742E-02      
   5269.4109288              0.69994046497E-02      
   1902.0315541              0.22312068196E-01      
    741.57677159             0.62808077697E-01      
    307.20901906             0.15101140997    
    133.52786203             0.28713661177    
     60.253381291            0.36385490107    
S   3   1.00
    522.02426206             0.18071323116E-01      
    161.51290469             0.16449219884    
     62.126369433            0.63897334899    
S   1   1.00
     27.590930012            1.0000000        
S   1   1.00
     11.175528881            1.0000000        
S   1   1.00
      5.2959065137           1.0000000        
S   1   1.00
      2.4782798895           1.0000000        
S   1   1.00
      0.91262095059          1.0000000        
S   1   1.00
      0.40426067549          1.0000000        
S   1   1.00
      0.16562886306          1.0000000        
P   8   1.00
   2868.4504581              0.24010435121E-03      
    679.71869590             0.20904788665E-02      
    220.36758824             0.11369316839E-01      
     83.620439734            0.44901977398E-01      
     34.964322657            0.13237156770    
     15.525131784            0.27709277600    
      7.0992979806           0.38613979646    
      3.3021336602           0.28492925372    
P   2   1.00
    128.78765667            -0.30509457751E-01      
      8.4357867977           0.64101621070    
P   1   1.00
      1.4618661855           1.0000000        
P   1   1.00
      0.64658010096          1.0000000        
P   1   1.00
      0.27229295755          1.0000000        
P   1   1.00
      0.10905182449          1.0000000        
D   1   1.00
      6.31500000             1.0000000        
D   1   1.00
      1.56200000             1.0000000        
D   1   1.00
      0.715000000            1.0000000        
D   1   1.00
      0.297000000            1.0000000        
F   1   1.00
      0.543000000            1.0000000        
F   1   1.00
      1.32500000             1.0000000        
G   1   1.00
      1.00700000             1.0000000        
****
Kr     0 
S   11   1.00
 11713823.0080000            0.56915790360E-05      
 1755253.3979000             0.44214471278E-04      
 399717.4192400              0.23227813842E-03      
 113285.7926000              0.97973661050E-03      
  36977.2052930              0.35537627541E-02      
  13355.0365800              0.11468673282E-01      
   5210.9012988              0.33241627469E-01      
   2162.1137020              0.85620725674E-01      
    943.29291023             0.18708766876    
    429.20724331             0.31497583326    
    202.40720840             0.33406191042    
S   4   1.00
   3260.4985521              0.73091509287E-02      
   1011.1069716              0.74040355445E-01      
    392.44359273             0.35414962222    
    173.21702132             0.80188286115    
S   1   1.00
     96.619988467            1.0000000        
S   1   1.00
     38.158284867            1.0000000        
S   1   1.00
     18.959517570            1.0000000        
S   1   1.00
      9.2505996199           1.0000000        
S   1   1.00
      4.3486517621           1.0000000        
S   1   1.00
      2.0380324209           1.0000000        
S   1   1.00
      0.69110152540          1.0000000        
S   1   1.00
      0.33506065143          1.0000000        
S   1   1.00
      0.14074441124          1.0000000        
P   10   1.00
  28609.3357670              0.60526369543E-04      
   6773.1236364              0.53786288403E-03      
   2199.8011079              0.30935356550E-02      
    841.50201590             0.13514318412E-01      
    356.92110288             0.47090086910E-01      
    162.71174351             0.12960370449    
     78.004264994            0.26607435646    
     38.682579997            0.36775851233    
     19.589158685            0.27406903542    
      9.7990863417           0.78773352304E-01      
P   5   1.00
    261.37786869            -0.16397212361E-02      
    100.09932146            -0.12034797573E-01      
     44.012139363           -0.34891485263E-01      
     10.854010739            0.25212650561    
      5.4351930182           0.57400781830    
P   1   1.00
      2.7062805542           1.0000000        
P   1   1.00
      1.3195633408           1.0000000        
P   1   1.00
      0.58004455967          1.0000000        
P   1   1.00
      0.24329976264          1.0000000        
P   1   1.00
      0.96823725087E-01            1.0000000        
D   7   1.00
    665.35057386             0.59588702935E-03      
    200.17995366             0.54594260457E-02      
     77.545085570            0.27980992479E-01      
     33.677854345            0.94119165910E-01      
     15.624928334            0.21825215619    
      7.4427867423           0.33739971242    
      3.5336073535           0.35141418853    
D   1   1.00
      1.6363725142           1.0000000        
D   1   1.00
      0.67845684728          1.0000000        
D   1   1.00
      0.2700000              1.0000000        
F   1   1.00
      0.41300000000          1.0000000        
F   1   1.00
      0.95570000000          1.0000000        
G   1   1.00
      0.73950000000          1.0000000        
****
Xe     0 
S   9   1.00
  18774.3000000              0.68000000000E-04      
   2824.8100000              0.50100000000E-03      
    640.08800000             0.20970000000E-02      
    172.61600000             0.44930000000E-02      
     29.516900000           -0.47151000000E-01      
     18.444800000            0.37403300000    
     11.523800000           -0.51282600000    
      6.6189000000          -0.47862400000    
      2.9955200000           0.59647100000    
S   3   1.00
     27.052171835            0.11189611954    
     20.940622415           -0.24055422724    
      6.0024591071           0.51452076187    
S   1   1.00
      1.6532586536           1.0000000        
S   1   1.00
      0.87553889270          1.0000000        
S   1   1.00
      0.41033616654          1.0000000        
S   1   1.00
      0.19493585779          1.0000000        
S   1   1.00
      0.90171093041E-01            1.0000000        
P   7   1.00
    613.33100000             0.13800000000E-03      
    141.71000000             0.85300000000E-03      
     20.310600000            0.55024000000E-01      
     11.033100000           -0.25298800000    
      6.8951300000           0.97460000000E-02      
      3.2416600000           0.52679700000    
      1.6653500000           0.50183200000    
P   3   1.00
     18.388908413           -0.24514446229E-01      
      6.1139045431           0.25265669670    
      1.8729815691           0.72938328969    
P   1   1.00
      0.82004665991          1.0000000        
P   1   1.00
      0.39552648254          1.0000000        
P   1   1.00
      0.17445509815          1.0000000        
P   1   1.00
      0.73389992663E-01            1.0000000        
D   8   1.00
    315.66106865             0.14235585191E-03      
     95.553873651            0.11707875751E-02      
     35.451236301            0.58783160362E-02      
     13.153211283           -0.16764226287E-01      
      6.3847329564           0.11558421625    
      3.6968166410           0.30375919653    
      2.0976070364           0.36037726827    
      1.1951246616           0.24813434400    
D   1   1.00
      0.68431725339          1.0000000        
D   1   1.00
      0.37710480204          1.0000000        
D   1   1.00
      0.16760000000          1.0000000        
F   1   1.00
      0.661900000            1.0000000        
F   1   1.00
      0.297900000            1.0000000        
F   1   1.00
      2.4323000000           1.0000000        
F   1   1.00
      7.2077391789           1.0000000        
****
Rn     0 
S   9   1.00
  12715.6000000              0.47000000000E-04      
   1913.3000000              0.33800000000E-03      
    429.95600000             0.12800000000E-02      
    100.97800000             0.27820000000E-02      
     24.470800000           -0.10042100000    
     15.292200000            0.53982400000    
      9.5548300000          -0.57385600000    
      5.9666100000          -0.61000000000    
      2.3893900000           0.79325300000    
S   3   1.00
     17.195195341            0.16333005101    
     14.230303720           -0.27167744770    
      3.0760339153           0.52372666490    
S   1   1.00
      1.3276477516           1.0000000        
S   1   1.00
      0.69973866760          1.0000000        
S   1   1.00
      0.33174234887          1.0000000        
S   1   1.00
      0.16093431878          1.0000000        
S   1   1.00
      0.75883596172E-01            1.0000000        
P   7   1.00
    131.70800000             0.58500000000E-03      
     21.401600000           -0.14438000000E-01      
     13.382600000            0.17009500000    
      8.3688000000          -0.42250400000    
      5.2294500000          -0.17190000000E-02      
      2.4768500000           0.60115800000    
      1.3018000000           0.49278000000    
P   3   1.00
      9.0768547920          -0.23950411879    
      8.3822367043           0.28554010268    
      0.70618692299          0.46017587936    
P   1   1.00
      0.64553860374          1.0000000        
P   1   1.00
      0.28380500916          1.0000000        
P   1   1.00
      0.13160518578          1.0000000        
P   1   1.00
      0.58958259826E-01            1.0000000        
D   8   1.00
    183.73000000             0.12900000000E-03      
     54.689700000            0.94900000000E-03      
     16.425500000            0.10100000000E-01      
      7.3050000000          -0.87309000000E-01      
      4.2747700000           0.71452000000E-01      
      2.6114200000           0.29537800000    
      1.5667400000           0.35873100000    
      0.96097900000          0.25612000000    
D   1   1.00
      0.59653500000          1.0000000        
D   1   1.00
      0.34202800000          1.0000000        
D   1   1.00
      0.15160000000          1.0000000        
F   1   1.00
      0.594000000            1.0000000        
F   1   1.00
      0.268400000            1.0000000        
F   1   1.00
      1.5556400000           1.0000000        
F   1   1.00
      3.2498641894           1.0000000        
****
$end
$ecp
XE     0
XE-ECP     3     28
f-ul potential
  4
2     20.88155700           -23.08929500       
2     20.78344300           -30.07447500       
2      5.25338900            -0.28822700       
2      5.36118800            -0.38692400       
s-ul potential
  7
2     40.00518400            49.99796200       
2     17.81221400           281.01330300       
2      9.30415000            61.53825500       
2     20.88155700            23.08929500       
2     20.78344300            30.07447500       
2      5.25338900             0.28822700       
2      5.36118800             0.38692400       
p-ul potential
  8
2     15.70177200            67.43914200       
2     15.25860800           134.87471100       
2      9.29218400            14.66330000       
2      8.55900300            29.35473000       
2     20.88155700            23.08929500       
2     20.78344300            30.07447500       
2      5.25338900             0.28822700       
2      5.36118800             0.38692400       
d-ul potential
  10
2     15.18560000            35.43690800       
2     14.28450000            53.19577200       
2      7.12188900             9.04623200       
2      6.99196300            13.22368100       
2      0.62394600             0.08485300       
2      0.64728400             0.04415500       
2     20.88155700            23.08929500       
2     20.78344300            30.07447500       
2      5.25338900             0.28822700       
2      5.36118800             0.38692400       
****
RN     0
RN-ECP     3     60
f potential
  4
2      6.34857100            21.79729000       
2      6.29594900            28.94680500       
2      2.88211800             1.44736500       
2      2.90804800             2.17796400       
s-f potential
  7
2     30.15124200            49.96555100       
2     14.52124100           283.07000000       
2      8.05203800            62.00287000       
2      6.34857100           -21.79729000       
2      6.29594900           -28.94680500       
2      2.88211800            -1.44736500       
2      2.90804800            -2.17796400       
p-f potential
  8
2     11.00994200            71.96911900       
2      9.61762500           143.86055900       
2      7.33600800             4.71476100       
2      6.40625300             9.01306500       
2      6.34857100           -21.79729000       
2      6.29594900           -28.94680500       
2      2.88211800            -1.44736500       
2      2.90804800            -2.17796400       
d-f potential
  8
2      8.36922000            36.36836500       
2      8.11697500            54.55176100       
2      5.35365600             9.63448700       
2      5.09721200            14.38790200       
2      6.34857100           -21.79729000       
2      6.29594900           -28.94680500       
2      2.88211800            -1.44736500       
2      2.90804800            -2.17796400       
****
$end

# Specify <MacroPath> to be used in the batch
__macro_path__  ::
<PATH1> = '.'

# The molecular set to batch: 
#                13 is the total number of jobs in this batch list
__batch__ :: 13
#"Flag"         "DIR"                        "InpName"       "JobType"
 ne_2           <PATH1>/RG6                 ne_2.in            energy
 ne             <PATH1>/RG6                   ne.in            energy
 ar_2           <PATH1>/RG6                 ar_2.in            energy
 ar             <PATH1>/RG6                   ar.in            energy
 ar_2           <PATH1>/RG6                 ar_2.in            energy
 kr             <PATH1>/RG6                   kr.in            energy
 kr_2           <PATH1>/RG6                 kr_2.in            energy
 kr             <PATH1>/RG6                   kr.in            energy
 rn_2           <PATH1>/RG6                 rn_2.in            energy
 rn             <PATH1>/RG6                   rn.in            energy
 xe             <PATH1>/RG6                   xe.in            energy
 xe_2           <PATH1>/RG6                 xe_2.in            energy
 rnxe           <PATH1>/RG6                 rnxe.in            energy


# Training set for the atomization energy
#               6 is the total number of the energy testing data
#           627.51 is the scale factor from "a.u." to "kcal/mol", 
__energy__ :: 6  627.51
#"Number" "Flag" "Scale"                                           "Ref"      "Weight"
  2        ne_2       -1       ne        2                         0.08       1.0
  2        ar_2       -1       ar        2                         0.28       1.0
  2        kr_2       -1       kr        2                         0.40       1.0
  2        xe_2       -1       xe        2                         0.56       1.0
  3        rnxe       -1       rn        1         xe      1       0.65       1.0
  2        rn_2       -1       rn        2                         0.79       1.0 
