# The project environment :
#     "ProjDir" specifying the storage DIR of this project
#     "ProjCtrl" = 0 : to run all the jobs
#           = 1 : to fetch result from existed log and chk files
#           = 2 : to run the job without corresponding log or chk files
#       "ProjTool" = "Gaussian" : to run jobs using Gaussian package (default)
#                  = "QChem"    : to run jobs using Q-Chem package
#                "ProjDir"       "ProjCtrl"      "ProjTool"
__project__ ::   ./RSE43           2             QChem 

# The project description
__title__ ::
"============================== RSE43 set ============================="
"             This is RSE43 subset from GMTKN30 proposed by Grimme     "
"             def2-QZVP is used here                                   "

# Machine and option keyword of Gaussian Package
__qchem__ :: 1 rmp2 # Following lines are machine and option keywords of Gau-Softs
$rem
mem_static      = 200
mem_total       = 7500
exchange        = b3lyp
basis           = gen
max_scf_cycles  = 50
scf_convergence = 7
symmetry        = false
xc_grid         = 000075000302                                                               
$end
$basis
H     0 
S   4   1.00
    190.6916900              0.70815167E-03   
     28.6055320              0.54678827E-02   
      6.5095943              0.27966605E-01   
      1.8412455              0.10764538       
S   1   1.00
      0.59853725             1.0000000        
S   1   1.00
      0.21397624             1.0000000        
S   1   1.00
      0.80316286E-01         1.0000000        
P   1   1.00
      2.29200000             1.0000000        
P   1   1.00
      0.83800000             1.0000000        
P   1   1.00
      0.29200000             1.0000000        
D   1   1.00
      2.06200000             1.0000000        
D   1   1.00
      0.66200000             1.0000000        
F   1   1.00
      1.39700000             1.0000000        
****
C     0 
S   8   1.00
  67025.0710290              0.38736308501E-04      
  10039.9865380              0.30107917575E-03      
   2284.9316911              0.15787918095E-02      
    647.14122130             0.66087087195E-02      
    211.09472335             0.23367123250E-01      
     76.177643862            0.70420716898E-01      
     29.633839163            0.17360344953    
     12.187785081            0.32292305648    
S   2   1.00
     53.026006299            0.74897404492E-01      
     15.258502776            0.76136220983    
S   1   1.00
      5.2403957464           1.0000000        
S   1   1.00
      2.2905022379           1.0000000        
S   1   1.00
      0.69673283006          1.0000000        
S   1   1.00
      0.27599337363          1.0000000        
S   1   1.00
      0.10739884389          1.0000000        
P   5   1.00
    105.12555082             0.84647553844E-03      
     24.884461066            0.66274038534E-02      
      7.8637230826           0.30120390419E-01      
      2.8407001835           0.99951435476E-01      
      1.1227137335           0.23826299282    
P   1   1.00
      0.46050725555          1.0000000        
P   1   1.00
      0.18937530913          1.0000000        
P   1   1.00
      0.75983791611E-01            1.0000000        
D   1   1.00
      1.84800000             1.0000000        
D   1   1.00
      0.64900000             1.0000000        
D   1   1.00
      0.22800000             1.0000000        
F   1   1.00
      1.41900000             1.0000000        
F   1   1.00
      0.48500000             1.0000000        
G   1   1.00
      1.01100000             1.0000000        
****
N     0 
S   8   1.00
  90726.8892100              0.39257887368E-04      
  13590.5288010              0.30513316455E-03      
   3092.9883781              0.16000560446E-02      
    875.99876362             0.66982937306E-02      
    285.74469982             0.23690078765E-01      
    103.11913417             0.71455405268E-01      
     40.128556777            0.17632774876    
     16.528095704            0.32677592815    
S   2   1.00
     69.390960983            0.80052094386E-01      
     20.428200596            0.78268063538    
S   1   1.00
      7.1292587972           1.0000000        
S   1   1.00
      3.1324304893           1.0000000        
S   1   1.00
      0.98755778723          1.0000000        
S   1   1.00
      0.38765721307          1.0000000        
S   1   1.00
      0.14909883075          1.0000000        
P   5   1.00
    150.05742670            -0.86216165986E-03      
     35.491599483           -0.68571273236E-02      
     11.247864223           -0.31795688855E-01      
      4.0900305195          -0.10537396822    
      1.6220573146          -0.24519708041    
P   1   1.00
      0.66442261530          1.0000000        
P   1   1.00
      0.27099770070          1.0000000        
P   1   1.00
      0.10688749984          1.0000000        
D   1   1.00
      2.83700000             1.0000000        
D   1   1.00
      0.96800000             1.0000000        
D   1   1.00
      0.33500000             1.0000000        
F   1   1.00
      2.02700000             1.0000000        
F   1   1.00
      0.68500000             1.0000000        
G   1   1.00
      1.42700000             1.0000000        
****
O     0 
S   8   1.00
 116506.4690800              0.40383857939E-04      
  17504.3497240              0.31255139004E-03      
   3993.4513230              0.16341473495E-02      
   1133.0063186              0.68283224757E-02      
    369.99569594             0.24124410221E-01      
    133.62074349             0.72730206154E-01      
     52.035643649            0.17934429892    
     21.461939313            0.33059588895    
S   2   1.00
     89.835051252            0.96468652996E-01      
     26.428010844            0.94117481120    
S   1   1.00
      9.2822824649           1.0000000        
S   1   1.00
      4.0947728533           1.0000000        
S   1   1.00
      1.3255349078           1.0000000        
S   1   1.00
      0.51877230787          1.0000000        
S   1   1.00
      0.19772676454          1.0000000        
P   5   1.00
    191.15255810             0.25115697705E-02      
     45.233356739            0.20039240864E-01      
     14.353465922            0.93609064762E-01      
      5.2422371832           0.30618127124    
      2.0792418599           0.67810501439    
P   1   1.00
      0.84282371424          1.0000000        
P   1   1.00
      0.33617694891          1.0000000        
P   1   1.00
      0.12863997974          1.0000000        
D   1   1.00
      3.77500000             1.0000000        
D   1   1.00
      1.30000000             1.0000000        
D   1   1.00
      0.44400000             1.0000000        
F   1   1.00
      2.66600000             1.0000000        
F   1   1.00
      0.85900000             1.0000000        
G   1   1.00
      1.84600000             1.0000000        
****
F     0 
S   8   1.00
 132535.9734500              0.47387482743E-04      
  19758.1125880              0.37070120897E-03      
   4485.1996947              0.19450784713E-02      
   1273.8151020              0.80573291994E-02      
    418.93831236             0.27992880781E-01      
    152.55721985             0.82735120175E-01      
     59.821524823            0.19854169012    
     24.819076932            0.34860632233    
S   2   1.00
    100.74446673             0.10505068816    
     30.103728290            0.94068472434    
S   1   1.00
     10.814283272            1.0000000        
S   1   1.00
      4.8172886770           1.0000000        
S   1   1.00
      1.6559334213           1.0000000        
S   1   1.00
      0.64893519582          1.0000000        
S   1   1.00
      0.24778104545          1.0000000        
P   5   1.00
    240.96654114             0.30389933451E-02      
     57.020699781            0.24357738582E-01      
     18.126952120            0.11442925768    
      6.6457404621           0.37064659853    
      2.6375722892           0.79791551766    
P   1   1.00
      1.0638217200           1.0000000        
P   1   1.00
      0.41932562750          1.0000000        
P   1   1.00
      0.15747588299          1.0000000        
D   1   1.00
      5.01400000             1.0000000        
D   1   1.00
      1.72500000             1.0000000        
D   1   1.00
      0.58600000             1.0000000        
F   1   1.00
      3.56200000             1.0000000        
F   1   1.00
      1.14800000             1.0000000        
G   1   1.00
      2.37600000             1.0000000        
****
P     0 
S   10   1.00
 1090561.7138000             0.12142449664E-04      
 163316.3946100              0.94395292614E-04      
  37166.6074510              0.49622262177E-03      
  10526.8809450              0.20900040747E-02      
   3433.9976028              0.75489230025E-02      
   1239.5360480              0.24010423937E-01      
    483.27456199             0.67231473697E-01      
    200.16911586             0.15978669881    
     86.960394829            0.29735906782    
     39.211283369            0.36187171850    
S   3   1.00
    336.75883662             0.19154721050E-01      
    103.72179793             0.17134079100    
     39.771861240            0.63689655985    
S   1   1.00
     17.888612952            1.0000000        
S   1   1.00
      6.9644556879           1.0000000        
S   1   1.00
      3.2198092087           1.0000000        
S   1   1.00
      1.4669943979           1.0000000        
S   1   1.00
      0.47765437532          1.0000000        
S   1   1.00
      0.21637789241          1.0000000        
S   1   1.00
      0.90235894336E-01            1.0000000        
P   8   1.00
   2019.6711374              0.21359172406E-03      
    478.60125090             0.18568771399E-02      
    155.14942504             0.10070690115E-01      
     58.816356575            0.39605153679E-01      
     24.544512785            0.11736067844    
     10.883571061            0.24950540642    
      4.9624791285           0.36421287984    
      2.3002912343           0.31764127123    
P   2   1.00
     59.371345016            0.39432918004    
      3.0694590986          -6.3522960431     
P   1   1.00
      1.0634401739           1.0000000        
P   1   1.00
      0.45022152161          1.0000000        
P   1   1.00
      0.18267271344          1.0000000        
P   1   1.00
      0.71610333771E-01            1.0000000        
D   1   1.00
      3.34300000             1.0000000        
D   1   1.00
      0.807000000            1.0000000        
D   1   1.00
      0.365000000            1.0000000        
D   1   1.00
      0.154000000            1.0000000        
F   1   1.00
      0.280000000            1.0000000        
F   1   1.00
      0.703000000            1.0000000        
G   1   1.00
      0.597000000            1.0000000        
****
S     0 
S   10   1.00
 1273410.9023000             0.11767088246E-04      
 190697.8300700              0.91478610166E-04      
  43397.8853300              0.48090078640E-03      
  12291.8096770              0.20257193592E-02      
   4009.7420824              0.73190096406E-02      
   1447.3531030              0.23300499900E-01      
    564.30102913             0.65386213610E-01      
    233.74506243             0.15614449910    
    101.56402814             0.29318563787    
     45.805907187            0.36287914289    
S   3   1.00
    394.27281503             0.18753305081E-01      
    121.72249591             0.16870726663    
     46.754125963            0.63806830653    
S   1   1.00
     20.923008254            1.0000000        
S   1   1.00
      8.2685567800           1.0000000        
S   1   1.00
      3.8629345671           1.0000000        
S   1   1.00
      1.7794684781           1.0000000        
S   1   1.00
      0.61064260103          1.0000000        
S   1   1.00
      0.27412269445          1.0000000        
S   1   1.00
      0.11325939107          1.0000000        
P   8   1.00
   2189.8930459              0.23912552864E-03      
    518.94596592             0.20772032158E-02      
    168.19560151             0.11242420571E-01      
     63.745282788            0.44069933941E-01      
     26.597033077            0.12918778608    
     11.774251449            0.26910820167    
      5.3534379024           0.37855928620    
      2.4701911802           0.29692134655    
P   2   1.00
     82.120288349           -0.39420318847E-01      
      4.9523532869           0.64048403090    
P   1   1.00
      1.0828262029           1.0000000        
P   1   1.00
      0.49271277356          1.0000000        
P   1   1.00
      0.20483450942          1.0000000        
P   1   1.00
      0.80743615716E-01            1.0000000        
D   1   1.00
      4.15900000             1.0000000        
D   1   1.00
      1.01900000             1.0000000        
D   1   1.00
      0.464000000            1.0000000        
D   1   1.00
      0.194000000            1.0000000        
F   1   1.00
      0.335000000            1.0000000        
F   1   1.00
      0.869000000            1.0000000        
G   1   1.00
      0.683000000            1.0000000        
****
Cl     0 
S   10   1.00
 1467459.0095000             0.11478257194E-04      
 219756.1643300              0.89234299775E-04      
  50010.7703010              0.46911086186E-03      
  14164.8239180              0.19762446133E-02      
   4620.7465525              0.71419937783E-02      
   1667.8991635              0.22753219445E-01      
    650.29199265             0.63959782953E-01      
    269.38037376             0.15331059238    
    117.06752106             0.28986952417    
     52.811766843            0.36348071452    
S   3   1.00
    461.42769988             0.18019457578E-01      
    142.12665355             0.16489442314    
     54.437838768            0.63891587584    
S   1   1.00
     24.160770219            1.0000000        
S   1   1.00
      9.7083540306           1.0000000        
S   1   1.00
      4.5640696733           1.0000000        
S   1   1.00
      2.1194744832           1.0000000        
S   1   1.00
      0.75722365394          1.0000000        
S   1   1.00
      0.33747224597          1.0000000        
S   1   1.00
      0.13860775149          1.0000000        
P   8   1.00
   2501.9457890              0.24242618410E-03      
    592.88059285             0.21079961749E-02      
    192.18089186             0.11432693869E-01      
     72.875710488            0.44956698060E-01      
     30.436358370            0.13197476145    
     13.490178902            0.27493639225    
      6.1478071413           0.38347236372    
      2.8450944820           0.28871943885    
P   2   1.00
    105.39397936            -0.34311760144E-01      
      6.7369738513           0.64060818902    
P   1   1.00
      1.2421095772           1.0000000        
P   1   1.00
      0.55669714254          1.0000000        
P   1   1.00
      0.23387801464          1.0000000        
P   1   1.00
      0.93164490890E-01            1.0000000        
D   1   1.00
      5.19100000             1.0000000        
D   1   1.00
      1.27600000             1.0000000        
D   1   1.00
      0.583000000            1.0000000        
D   1   1.00
      0.243000000            1.0000000        
F   1   1.00
      0.423000000            1.0000000        
F   1   1.00
      1.08900000             1.0000000        
G   1   1.00
      0.827000000            1.0000000        
****
$end


# Specify <MacroPath> to be used in the batch
__macro_path__  ::
<PATH1> = '.'

# The molecular set to batch: 
#                88 is the total number of jobs in this batch list
__batch__ :: 88
#"Flag"         "DIR"                        "InpName"       "JobType"
   E10          <PATH1>/RSE43                E10.in          energy
   E11          <PATH1>/RSE43                E11.in          energy
   E12          <PATH1>/RSE43                E12.in          energy
   E13          <PATH1>/RSE43                E13.in          energy
   E15          <PATH1>/RSE43                E15.in          energy
   E16          <PATH1>/RSE43                E16.in          energy
   E17          <PATH1>/RSE43                E17.in          energy
   E18          <PATH1>/RSE43                E18.in          energy
   E19          <PATH1>/RSE43                E19.in          energy
    E1          <PATH1>/RSE43                 E1.in          energy
   E20          <PATH1>/RSE43                E20.in          energy
   E21          <PATH1>/RSE43                E21.in          energy
   E22          <PATH1>/RSE43                E22.in          energy
   E23          <PATH1>/RSE43                E23.in          energy
   E24          <PATH1>/RSE43                E24.in          energy
   E25          <PATH1>/RSE43                E25.in          energy
   E26          <PATH1>/RSE43                E26.in          energy
   E27          <PATH1>/RSE43                E27.in          energy
   E28          <PATH1>/RSE43                E28.in          energy
   E29          <PATH1>/RSE43                E29.in          energy
    E2          <PATH1>/RSE43                 E2.in          energy
   E30          <PATH1>/RSE43                E30.in          energy
   E31          <PATH1>/RSE43                E31.in          energy
   E32          <PATH1>/RSE43                E32.in          energy
   E33          <PATH1>/RSE43                E33.in          energy
   E34          <PATH1>/RSE43                E34.in          energy
   E35          <PATH1>/RSE43                E35.in          energy
   E36          <PATH1>/RSE43                E36.in          energy
   E37          <PATH1>/RSE43                E37.in          energy
   E38          <PATH1>/RSE43                E38.in          energy
   E39          <PATH1>/RSE43                E39.in          energy
    E3          <PATH1>/RSE43                 E3.in          energy
   E40          <PATH1>/RSE43                E40.in          energy
   E41          <PATH1>/RSE43                E41.in          energy
   E42          <PATH1>/RSE43                E42.in          energy
   E43          <PATH1>/RSE43                E43.in          energy
   E44          <PATH1>/RSE43                E44.in          energy
   E45          <PATH1>/RSE43                E45.in          energy
    E4          <PATH1>/RSE43                 E4.in          energy
    E5          <PATH1>/RSE43                 E5.in          energy
    E6          <PATH1>/RSE43                 E6.in          energy
    E7          <PATH1>/RSE43                 E7.in          energy
    E8          <PATH1>/RSE43                 E8.in          energy
    E9          <PATH1>/RSE43                 E9.in          energy
   P10          <PATH1>/RSE43                P10.in          energy
   P11          <PATH1>/RSE43                P11.in          energy
   P12          <PATH1>/RSE43                P12.in          energy
   P13          <PATH1>/RSE43                P13.in          energy
   P15          <PATH1>/RSE43                P15.in          energy
   P16          <PATH1>/RSE43                P16.in          energy
   P17          <PATH1>/RSE43                P17.in          energy
   P18          <PATH1>/RSE43                P18.in          energy
   P19          <PATH1>/RSE43                P19.in          energy
    P1          <PATH1>/RSE43                 P1.in          energy
   P20          <PATH1>/RSE43                P20.in          energy
   P21          <PATH1>/RSE43                P21.in          energy
   P22          <PATH1>/RSE43                P22.in          energy
   P23          <PATH1>/RSE43                P23.in          energy
   P24          <PATH1>/RSE43                P24.in          energy
   P25          <PATH1>/RSE43                P25.in          energy
   P26          <PATH1>/RSE43                P26.in          energy
   P27          <PATH1>/RSE43                P27.in          energy
   P28          <PATH1>/RSE43                P28.in          energy
   P29          <PATH1>/RSE43                P29.in          energy
    P2          <PATH1>/RSE43                 P2.in          energy
   P30          <PATH1>/RSE43                P30.in          energy
   P31          <PATH1>/RSE43                P31.in          energy
   P32          <PATH1>/RSE43                P32.in          energy
   P33          <PATH1>/RSE43                P33.in          energy
   P34          <PATH1>/RSE43                P34.in          energy
   P35          <PATH1>/RSE43                P35.in          energy
   P36          <PATH1>/RSE43                P36.in          energy
   P37          <PATH1>/RSE43                P37.in          energy
   P38          <PATH1>/RSE43                P38.in          energy
   P39          <PATH1>/RSE43                P39.in          energy
    P3          <PATH1>/RSE43                 P3.in          energy
   P40          <PATH1>/RSE43                P40.in          energy
   P41          <PATH1>/RSE43                P41.in          energy
   P42          <PATH1>/RSE43                P42.in          energy
   P43          <PATH1>/RSE43                P43.in          energy
   P44          <PATH1>/RSE43                P44.in          energy
   P45          <PATH1>/RSE43                P45.in          energy
    P4          <PATH1>/RSE43                 P4.in          energy
    P5          <PATH1>/RSE43                 P5.in          energy
    P6          <PATH1>/RSE43                 P6.in          energy
    P7          <PATH1>/RSE43                 P7.in          energy
    P8          <PATH1>/RSE43                 P8.in          energy
    P9          <PATH1>/RSE43                 P9.in          energy


# Training set for the atomization energy
#               43 is the total number of the energy testing data
#           627.51 is the scale factor from "a.u." to "kcal/mol", 
__energy__ :: 43  627.51
#"Number" "Flag"      "Scale"                            "Ref"   "Weight"
  4    E2      -1   P1    -1   E1    1    P2      1      -15.2   1.00
  4    E3      -1   P1    -1   E1    1    P3      1        1.9   1.00
  4    E4      -1   P1    -1   E1    1    P4      1        6.8   1.00
  4    E5      -1   P1    -1   E1    1    P5      1        7.0   1.00
  4    E6      -1   P1    -1   E1    1    P6      1        0.1   1.00
  4    E7      -1   P1    -1   E1    1    P7      1        1.4   1.00
  4    E8      -1   P1    -1   E1    1    P8      1       -3.2   1.00
  4    E9      -1   P1    -1   E1    1    P9      1       -1.3   1.00
  4    E10     -1   P1    -1   E1    1    P10     1       -1.8   1.00
  4    E11     -1   P1    -1   E1    1    P11     1      -17.5   1.00
  4    E12     -1   P1    -1   E1    1    P12     1      -10.0   1.00
  4    E13     -1   P1    -1   E1    1    P13     1       -8.6   1.00
  4    E15     -1   P1    -1   E1    1    P15     1       -6.3   1.00
  4    E16     -1   P1    -1   E1    1    P16     1       -6.3   1.00
  4    E17     -1   P1    -1   E1    1    P17     1       -6.6   1.00
  4    E18     -1   P1    -1   E1    1    P18     1       -6.4   1.00
  4    E19     -1   P1    -1   E1    1    P19     1       -3.0   1.00
  4    E20     -1   P1    -1   E1    1    P20     1       -3.9   1.00
  4    E21     -1   P1    -1   E1    1    P21     1      -12.0   1.00
  4    E22     -1   P1    -1   E1    1    P22     1        4.7   1.00
  4    E23     -1   P1    -1   E1    1    P23     1      -12.6   1.00
  4    E24     -1   P1    -1   E1    1    P24     1      -11.1   1.00
  4    E25     -1   P1    -1   E1    1    P25     1       -8.6   1.00
  4    E26     -1   P1    -1   E1    1    P26     1      -12.8   1.00
  4    E27     -1   P1    -1   E1    1    P27     1       -3.3   1.00
  4    E28     -1   P1    -1   E1    1    P28     1       -3.9   1.00
  4    E29     -1   P1    -1   E1    1    P29     1       -2.7   1.00
  4    E30     -1   P1    -1   E1    1    P30     1       -5.9   1.00
  4    E31     -1   P1    -1   E1    1    P31     1       -6.2   1.00
  4    E32     -1   P1    -1   E1    1    P32     1       -4.2   1.00
  4    E33     -1   P1    -1   E1    1    P33     1        0.7   1.00
  4    E34     -1   P1    -1   E1    1    P34     1      -10.8   1.00
  4    E35     -1   P1    -1   E1    1    P35     1       -8.4   1.00
  4    E36     -1   P1    -1   E1    1    P36     1        2.7   1.00
  4    E37     -1   P1    -1   E1    1    P37     1       -9.4   1.00
  4    E38     -1   P1    -1   E1    1    P38     1        0.0   1.00
  4    E39     -1   P1    -1   E1    1    P39     1       -2.9   1.00
  4    E40     -1   P1    -1   E1    1    P40     1      -22.5   1.00
  4    E41     -1   P1    -1   E1    1    P41     1      -24.1   1.00
  4    E42     -1   P1    -1   E1    1    P42     1      -25.4   1.00
  4    E43     -1   P1    -1   E1    1    P43     1      -13.1   1.00
  4    E44     -1   P1    -1   E1    1    P44     1       -6.4   1.00
  4    E45     -1   P1    -1   E1    1    P45     1       -2.3   1.00


