# The project environment :
#     "ProjDir" specifying the storage DIR of this project
#     "ProjCtrl" = 0 : to run all the jobs
#           = 1 : to fetch result from existed log and chk files
#           = 2 : to run the job without corresponding log or chk files
#       "ProjTool" = "Gaussian" : to run jobs using Gaussian package (default)
#                  = "QChem"    : to run jobs using Q-Chem package
#                "ProjDir"       "ProjCtrl"      "ProjTool"
__project__ ::   ./SIE11           2             QChem

# The project description
__title__ ::
"============================== SIE11 set ============================="
"             This is SIE11 subset from GMTKN30 proposed by Grimme     "
"             def2-QZVP is used here                                   "


# $rem group of Q-Chem Package
__qchem__ ::  1  rmp2 # 0 for serial version Q-Chem and 1 for parallel version Q-Chem
$rem
mem_static      = 200
mem_total       = 7500
exchange        = b3lyp
basis           = gen
max_scf_cycles  = 50
scf_convergence = 7
symmetry        = false
xc_grid         = 000075000302                                                               
$end
$basis
H     0 
S   4   1.00
    190.6916900              0.70815167E-03   
     28.6055320              0.54678827E-02   
      6.5095943              0.27966605E-01   
      1.8412455              0.10764538       
S   1   1.00
      0.59853725             1.0000000        
S   1   1.00
      0.21397624             1.0000000        
S   1   1.00
      0.80316286E-01         1.0000000        
P   1   1.00
      2.29200000             1.0000000        
P   1   1.00
      0.83800000             1.0000000        
P   1   1.00
      0.29200000             1.0000000        
D   1   1.00
      2.06200000             1.0000000        
D   1   1.00
      0.66200000             1.0000000        
F   1   1.00
      1.39700000             1.0000000        
****
He     0 
S   5   1.00
   1144.6470809              0.35861578618E-03      
    171.64596667             0.27725434466E-02      
     39.066056254            0.14241892216E-01      
     11.051401989            0.55457352277E-01      
      3.5725574473           0.16170511810    
S   1   1.00
      1.2429415962           1.0000000        
S   1   1.00
      0.44807668730          1.0000000        
S   1   1.00
      0.16411579128          1.0000000        
P   1   1.00
      5.99400000             1.0000000        
P   1   1.00
      1.74500000             1.0000000        
P   1   1.00
      0.56000000             1.0000000        
D   1   1.00
      4.29900000             1.0000000        
D   1   1.00
      1.22300000             1.0000000        
F   1   1.00
      2.68000000             1.0000000        
****
Li     0 
S   9   1.00
  14853.9770850              0.42711388815E-04      
   2225.2236477              0.33235310800E-03      
    504.88739008             0.17518436649E-02      
    142.45847548             0.73477995850E-02      
     46.315599580            0.25899837683E-01      
     16.655335474            0.76670682431E-01      
      6.4331186199           0.18276075765    
      2.6027043858           0.32655434038    
      1.0897245405           0.37000429828    
S   2   1.00
      4.4236595971           0.11120987921    
      1.2356394990           0.79987335862    
S   1   1.00
      0.46067470602          1.0000000        
S   1   1.00
      0.96617166955E-01            1.0000000        
S   1   1.00
      0.45915452296E-01            1.0000000        
S   1   1.00
      0.21140048730E-01            1.0000000        
P   3   1.00
      3.2605109206           0.86504749023E-02      
      0.65003043115          0.47614123736E-01      
      0.16941671073          0.21001138000    
P   1   1.00
      0.55732343767E-01            1.0000000        
P   1   1.00
      0.20489959241E-01            1.0000000        
P   1   1.00
      3.3270000              1.0000000        
D   1   1.00
      0.2300000              1.0000000        
D   1   1.00
      0.0757000              1.0000000        
F   1   1.00
      0.1350000              1.0000000        
****
C     0 
S   8   1.00
  67025.0710290              0.38736308501E-04      
  10039.9865380              0.30107917575E-03      
   2284.9316911              0.15787918095E-02      
    647.14122130             0.66087087195E-02      
    211.09472335             0.23367123250E-01      
     76.177643862            0.70420716898E-01      
     29.633839163            0.17360344953    
     12.187785081            0.32292305648    
S   2   1.00
     53.026006299            0.74897404492E-01      
     15.258502776            0.76136220983    
S   1   1.00
      5.2403957464           1.0000000        
S   1   1.00
      2.2905022379           1.0000000        
S   1   1.00
      0.69673283006          1.0000000        
S   1   1.00
      0.27599337363          1.0000000        
S   1   1.00
      0.10739884389          1.0000000        
P   5   1.00
    105.12555082             0.84647553844E-03      
     24.884461066            0.66274038534E-02      
      7.8637230826           0.30120390419E-01      
      2.8407001835           0.99951435476E-01      
      1.1227137335           0.23826299282    
P   1   1.00
      0.46050725555          1.0000000        
P   1   1.00
      0.18937530913          1.0000000        
P   1   1.00
      0.75983791611E-01            1.0000000        
D   1   1.00
      1.84800000             1.0000000        
D   1   1.00
      0.64900000             1.0000000        
D   1   1.00
      0.22800000             1.0000000        
F   1   1.00
      1.41900000             1.0000000        
F   1   1.00
      0.48500000             1.0000000        
G   1   1.00
      1.01100000             1.0000000        
****
N     0 
S   8   1.00
  90726.8892100              0.39257887368E-04      
  13590.5288010              0.30513316455E-03      
   3092.9883781              0.16000560446E-02      
    875.99876362             0.66982937306E-02      
    285.74469982             0.23690078765E-01      
    103.11913417             0.71455405268E-01      
     40.128556777            0.17632774876    
     16.528095704            0.32677592815    
S   2   1.00
     69.390960983            0.80052094386E-01      
     20.428200596            0.78268063538    
S   1   1.00
      7.1292587972           1.0000000        
S   1   1.00
      3.1324304893           1.0000000        
S   1   1.00
      0.98755778723          1.0000000        
S   1   1.00
      0.38765721307          1.0000000        
S   1   1.00
      0.14909883075          1.0000000        
P   5   1.00
    150.05742670            -0.86216165986E-03      
     35.491599483           -0.68571273236E-02      
     11.247864223           -0.31795688855E-01      
      4.0900305195          -0.10537396822    
      1.6220573146          -0.24519708041    
P   1   1.00
      0.66442261530          1.0000000        
P   1   1.00
      0.27099770070          1.0000000        
P   1   1.00
      0.10688749984          1.0000000        
D   1   1.00
      2.83700000             1.0000000        
D   1   1.00
      0.96800000             1.0000000        
D   1   1.00
      0.33500000             1.0000000        
F   1   1.00
      2.02700000             1.0000000        
F   1   1.00
      0.68500000             1.0000000        
G   1   1.00
      1.42700000             1.0000000        
****
O     0 
S   8   1.00
 116506.4690800              0.40383857939E-04      
  17504.3497240              0.31255139004E-03      
   3993.4513230              0.16341473495E-02      
   1133.0063186              0.68283224757E-02      
    369.99569594             0.24124410221E-01      
    133.62074349             0.72730206154E-01      
     52.035643649            0.17934429892    
     21.461939313            0.33059588895    
S   2   1.00
     89.835051252            0.96468652996E-01      
     26.428010844            0.94117481120    
S   1   1.00
      9.2822824649           1.0000000        
S   1   1.00
      4.0947728533           1.0000000        
S   1   1.00
      1.3255349078           1.0000000        
S   1   1.00
      0.51877230787          1.0000000        
S   1   1.00
      0.19772676454          1.0000000        
P   5   1.00
    191.15255810             0.25115697705E-02      
     45.233356739            0.20039240864E-01      
     14.353465922            0.93609064762E-01      
      5.2422371832           0.30618127124    
      2.0792418599           0.67810501439    
P   1   1.00
      0.84282371424          1.0000000        
P   1   1.00
      0.33617694891          1.0000000        
P   1   1.00
      0.12863997974          1.0000000        
D   1   1.00
      3.77500000             1.0000000        
D   1   1.00
      1.30000000             1.0000000        
D   1   1.00
      0.44400000             1.0000000        
F   1   1.00
      2.66600000             1.0000000        
F   1   1.00
      0.85900000             1.0000000        
G   1   1.00
      1.84600000             1.0000000        
****
F     0 
S   8   1.00
 132535.9734500              0.47387482743E-04      
  19758.1125880              0.37070120897E-03      
   4485.1996947              0.19450784713E-02      
   1273.8151020              0.80573291994E-02      
    418.93831236             0.27992880781E-01      
    152.55721985             0.82735120175E-01      
     59.821524823            0.19854169012    
     24.819076932            0.34860632233    
S   2   1.00
    100.74446673             0.10505068816    
     30.103728290            0.94068472434    
S   1   1.00
     10.814283272            1.0000000        
S   1   1.00
      4.8172886770           1.0000000        
S   1   1.00
      1.6559334213           1.0000000        
S   1   1.00
      0.64893519582          1.0000000        
S   1   1.00
      0.24778104545          1.0000000        
P   5   1.00
    240.96654114             0.30389933451E-02      
     57.020699781            0.24357738582E-01      
     18.126952120            0.11442925768    
      6.6457404621           0.37064659853    
      2.6375722892           0.79791551766    
P   1   1.00
      1.0638217200           1.0000000        
P   1   1.00
      0.41932562750          1.0000000        
P   1   1.00
      0.15747588299          1.0000000        
D   1   1.00
      5.01400000             1.0000000        
D   1   1.00
      1.72500000             1.0000000        
D   1   1.00
      0.58600000             1.0000000        
F   1   1.00
      3.56200000             1.0000000        
F   1   1.00
      1.14800000             1.0000000        
G   1   1.00
      2.37600000             1.0000000        
****
Na     0 
S   10   1.00
 379852.2008100              0.20671384468E-04      
  56886.0063780              0.16070466617E-03      
  12942.7018380              0.84462905848E-03      
   3664.3017904              0.35519026029E-02      
   1194.7417499              0.12754034468E-01      
    430.98192917             0.39895462742E-01      
    167.83169424             0.10720154498    
     69.306669040            0.23339516913    
     29.951170886            0.36333077287    
     13.380791097            0.30544770974    
S   3   1.00
    121.74011283             0.36142427284E-01      
     37.044143387            0.28820961687    
     13.995422624            0.79337384869    
S   1   1.00
      5.9827797428           1.0000000        
S   1   1.00
      2.4830455118           1.0000000        
S   1   1.00
      1.0452506187           1.0000000        
S   1   1.00
      0.43875640383          1.0000000        
S   1   1.00
      0.65595633185E-01            1.0000000        
S   1   1.00
      0.30561925072E-01            1.0000000        
S   1   1.00
      0.15509064018E-01            1.0000000        
P   8   1.00
    690.77627017             0.37478518415E-03      
    163.82806121             0.31775441030E-02      
     52.876460769            0.16333581338E-01      
     19.812270493            0.59754902585E-01      
      8.1320378784           0.15879328812    
      3.4969068377           0.29049363260    
      1.5117244146           0.36368131139    
      0.64479294912          0.28195867334    
P   1   1.00
      0.26145823312          1.0000000        
P   1   1.00
      0.11704726116          1.0000000        
P   1   1.00
      0.40494747666E-01            1.0000000        
P   1   1.00
      0.15666707355E-01            1.0000000        
D   1   1.00
      2.9000000              1.0000000        
D   1   1.00
      0.2300000              1.0000000        
D   1   1.00
      0.0757000              1.0000000        
F   1   1.00
      0.1350000              1.0000000        
****
Mg     0 
S   10   1.00
 605967.7875300              0.14430176617E-04      
  90569.0946920              0.11249871807E-03      
  20574.2528440              0.59264972450E-03      
   5818.6284865              0.24988770424E-02      
   1895.6296075              0.90230775141E-02      
    683.45941021             0.28579919806E-01      
    266.18219762             0.79064453923E-01      
    110.11220010             0.18269337814    
     47.777041234            0.32157193967    
     21.542166149            0.35028259389    
S   3   1.00
    174.12136378             0.22931111278E-01      
     53.484972498            0.19151777552    
     20.500213307            0.61155711055    
S   1   1.00
      9.8056826922           1.0000000        
S   1   1.00
      3.5402989348           1.0000000        
S   1   1.00
      1.5450850046           1.0000000        
S   1   1.00
      0.66540195432          1.0000000        
S   1   1.00
      0.14355439071          1.0000000        
S   1   1.00
      0.66624673468E-01            1.0000000        
S   1   1.00
      0.29772648266E-01            1.0000000        
P   8   1.00
    893.20460829             0.34958267428E-03      
    211.78258286             0.29811890111E-02      
     68.443200537            0.15517845758E-01      
     25.727265349            0.57578659557E-01      
     10.606634281            0.15610307853    
      4.5934126484           0.29230912580    
      2.0100469807           0.37219024072    
      0.87384841536          0.27578088891    
P   1   1.00
      0.35615076666          1.0000000        
P   1   1.00
      0.18995954356          1.0000000        
P   1   1.00
      0.74580135669E-01            1.0000000        
P   1   1.00
      0.29221641309E-01            1.0000000        
D   1   1.00
      3.8100000              1.0000000        
D   1   1.00
      0.6500000              1.0000000        
D   1   1.00
      0.2000000              1.0000000        
D   1   1.00
      0.0520000              1.0000000        
F   1   1.00
      0.1600000              1.0000000        
****
Cl     0 
S   10   1.00
 1467459.0095000             0.11478257194E-04      
 219756.1643300              0.89234299775E-04      
  50010.7703010              0.46911086186E-03      
  14164.8239180              0.19762446133E-02      
   4620.7465525              0.71419937783E-02      
   1667.8991635              0.22753219445E-01      
    650.29199265             0.63959782953E-01      
    269.38037376             0.15331059238    
    117.06752106             0.28986952417    
     52.811766843            0.36348071452    
S   3   1.00
    461.42769988             0.18019457578E-01      
    142.12665355             0.16489442314    
     54.437838768            0.63891587584    
S   1   1.00
     24.160770219            1.0000000        
S   1   1.00
      9.7083540306           1.0000000        
S   1   1.00
      4.5640696733           1.0000000        
S   1   1.00
      2.1194744832           1.0000000        
S   1   1.00
      0.75722365394          1.0000000        
S   1   1.00
      0.33747224597          1.0000000        
S   1   1.00
      0.13860775149          1.0000000        
P   8   1.00
   2501.9457890              0.24242618410E-03      
    592.88059285             0.21079961749E-02      
    192.18089186             0.11432693869E-01      
     72.875710488            0.44956698060E-01      
     30.436358370            0.13197476145    
     13.490178902            0.27493639225    
      6.1478071413           0.38347236372    
      2.8450944820           0.28871943885    
P   2   1.00
    105.39397936            -0.34311760144E-01      
      6.7369738513           0.64060818902    
P   1   1.00
      1.2421095772           1.0000000        
P   1   1.00
      0.55669714254          1.0000000        
P   1   1.00
      0.23387801464          1.0000000        
P   1   1.00
      0.93164490890E-01            1.0000000        
D   1   1.00
      5.19100000             1.0000000        
D   1   1.00
      1.27600000             1.0000000        
D   1   1.00
      0.583000000            1.0000000        
D   1   1.00
      0.243000000            1.0000000        
F   1   1.00
      0.423000000            1.0000000        
F   1   1.00
      1.08900000             1.0000000        
G   1   1.00
      0.827000000            1.0000000        
****
$end



# Specify <MacroPath> to be used in the batch
__macro_path__  ::
<PATH1> = '.'

# The molecular set to batch: 
#                29 is the total number of jobs in this batch list
__batch__ :: 29
#"Flag"         "DIR"                        "InpName"       "JobType"
  aceton+       <PATH1>/SIE11                aceton+.in      energy
   acetyl       <PATH1>/SIE11                 acetyl.in      energy
     but+       <PATH1>/SIE11                   but+.in      energy
       bz       <PATH1>/SIE11                     bz.in      energy
    bz_li       <PATH1>/SIE11                  bz_li.in      energy
     c2h4       <PATH1>/SIE11                   c2h4.in      energy
  c2h4_f2       <PATH1>/SIE11                c2h4_f2.in      energy
      ch3       <PATH1>/SIE11                    ch3.in      energy
    clclf       <PATH1>/SIE11                  clclf.in      energy
    clfcl       <PATH1>/SIE11                  clfcl.in      energy
      clf       <PATH1>/SIE11                    clf.in      energy
    ethyl       <PATH1>/SIE11                  ethyl.in      energy
   ethyl+       <PATH1>/SIE11                 ethyl+.in      energy
       f2       <PATH1>/SIE11                     f2.in      energy
    h2o2+       <PATH1>/SIE11                  h2o2+.in      energy
      h2o       <PATH1>/SIE11                    h2o.in      energy
     h2o+       <PATH1>/SIE11                   h2o+.in      energy
     he2+       <PATH1>/SIE11                   he2+.in      energy
       he       <PATH1>/SIE11                     he.in      energy
      he+       <PATH1>/SIE11                    he+.in      energy
       li       <PATH1>/SIE11                     li.in      energy
    li_f2       <PATH1>/SIE11                  li_f2.in      energy
      mgo       <PATH1>/SIE11                    mgo.in      energy
       na       <PATH1>/SIE11                     na.in      energy
    naomg       <PATH1>/SIE11                  naomg.in      energy
    nh32+       <PATH1>/SIE11                  nh32+.in      energy
  nh3_clf       <PATH1>/SIE11                nh3_clf.in      energy
      nh3       <PATH1>/SIE11                    nh3.in      energy
     nh3+       <PATH1>/SIE11                   nh3+.in      energy


# Training set for the atomization energy
#               11 is the total number of the energy testing data
#           627.51 is the scale factor from "a.u." to "kcal/mol", 
__energy__ :: 11  627.51
#"Number" "Flag"      "Scale"                                 "Ref"      "Weight"
  3   he      1   he+       1      he2+       -1               57.44      1.000
  3   nh3     1   nh3+      1      nh32+      -1               35.34      1.000
  3   h2o     1   h2o+      1      h2o2+      -1               37.25      1.000
  3   but+   -1   ethyl     1      ethyl+      1               35.28      1.000
  3   ch3     1   acetyl    1      aceton+    -1               22.57      1.000
  2   clclf   1   clfcl    -1                                 -1.010      1.000
  3   c2h4    1   f2        1      c2h4_f2    -1               1.080      1.000
  3   li      1   bz        1      bz_li      -1               9.500      1.000
  3   nh3     1   clf       1      nh3_clf    -1               10.50      1.000
  3   mgo     1   na        1      naomg      -1               69.56      1.000
  3   li      1   f2        1      li_f2      -1               94.36      1.000
 


