$molecule
0    1
    N      0.00000000      0.00000000      0.28518414
    H     -0.46974915      0.81362940     -0.09506138
    H     -0.46974915     -0.81362940     -0.09506138
    H      0.93949830      0.00000000     -0.09506138
$end
   
$rem
mem_static = 200
mem_total  = 7500
exchange = b3lyp
basis = G3Large
max_scf_cycles = 50
scf_convergence = 7
symmetry = false
xc_grid = 000075000302
$end
