$molecule
0    2
    P      0.00000000      0.00000000      0.66239873
    H     -1.02371208      0.00000000     -0.33119937
    H      1.02371208      0.00000000     -0.33119937
$end
   
$rem
mem_static = 200
mem_total  = 7500
exchange = b3lyp
basis = G3Large
max_scf_cycles = 50
scf_convergence = 7
symmetry = false
xc_grid = 000075000302
$end
