$molecule
0    1
    P      0.00000000      0.00000000      0.57921355
    H     -0.59708961      1.03418954     -0.19307118
    H     -0.59708961     -1.03418954     -0.19307118
    H      1.19417922      0.00000000     -0.19307118
$end
   
$rem
mem_static = 200
mem_total  = 7500
exchange = b3lyp
basis = G3Large
max_scf_cycles = 50
scf_convergence = 7
symmetry = false
xc_grid = 000075000302
$end
