$molecule
1     2
    C      0.69418983      0.00000000     -0.00000006
    C     -0.69418983      0.00000000      0.00000006
    H     -1.25663630     -0.90339302      0.23020332
    H     -1.25663612      0.90339303     -0.23020375
    H      1.25663613      0.90339301      0.23020377
    H      1.25663629     -0.90339304     -0.23020330
$end
   
$rem
mem_static = 200
mem_total  = 7500
exchange = b3lyp
basis = G3Large
max_scf_cycles = 50
scf_convergence = 7
symmetry = false
xc_grid = 000075000302
$end
