$molecule
1    2
N
H,1,RNH
H,1,RNH,2,120.
H,1,RNH,2,120.,3,180.,0
 
RNH=1.025985
$end
   
$rem
mem_static = 200
mem_total  = 7500
exchange = b3lyp
basis = 6-311+g(3df,2p)
scf_convergence = 7
symmetry = false
xc_grid = 000075000302
$end
