$molecule
1    2
O
H,1,R
H,1,R,2,A
 
R=1.010335
A=109.95753
$end
   
$rem
mem_static = 200
mem_total  = 7500
exchange = b3lyp
basis = 6-311+g(3df,2p)
scf_convergence = 7
symmetry = false
xc_grid = 000075000302
$end
