$molecule
1    2
P
X,1,RX
H,1,R1,2,A
H,1,R1,2,A,3,120.,0
H,1,R1,2,A,3,-120.,0
 
RX=1.
R1=1.395097
A=105.295842
$end
   
$rem
mem_static = 200
mem_total  = 7500
exchange = b3lyp
basis = 6-311+g(3df,2p)
scf_convergence = 7
symmetry = false
xc_grid = 000075000302
$end
