$molecule
1    1
P
H,1,R1
H,1,R1,2,A
 
R1=1.415438
A=93.410417
$end
   
$rem
mem_static = 200
mem_total  = 7500
exchange = b3lyp
basis = 6-311+g(3df,2p)
scf_convergence = 7
symmetry = false
xc_grid = 000075000302
$end
