$molecule
-1    1
N
H,1,RNH
H,1,RNH,2,HNH
 
RNH=1.042632
HNH=98.432415
$end
   
$rem
mem_static = 200
mem_total  = 7500
exchange = b3lyp
basis = 6-311+g(3df,2p)
scf_convergence = 7
symmetry = false
xc_grid = 000075000302
$end
