$molecule
-1    2
C
H,1,r
H,1,r,2,a
 
r=1.14059
a=97.917282
$end
   
$rem
mem_static = 200
mem_total  = 7500
exchange = b3lyp
basis = 6-311+g(3df,2p)
scf_convergence = 7
symmetry = false
xc_grid = 000075000302
$end
