$molecule
1    1
h1
h2 h1 0.85108753
h3 h1 0.85108753 h2 60.
$end
   
$rem
mem_static = 200
mem_total  = 7500
exchange = b3lyp
basis = 6-311+g(3df,2p)
scf_convergence = 7
symmetry = false
xc_grid = 000075000302
$end
