$molecule
1    2
C
X,1,1.
H,1,CH,2,HCX
H,1,CH,2,HCX,3,180.,0
H,1,CHP,2,HPCX,3,90.,0
H,1,CHP,2,HPCX,3,-90.,0
 
CH=1.173292
CHP=1.083863
HCX=29.280619
HPCX=118.269863
$end
   
$rem
mem_static = 200
mem_total  = 7500
exchange = b3lyp
basis = 6-311+g(3df,2p)
scf_convergence = 7
symmetry = false
xc_grid = 000075000302
$end
