$molecule
0    1
Si
H,1,R
H,1,R,2,109.471221
H,1,R,2,109.471221,3,120.,0
H,1,R,2,109.471221,3,-120.,0
 
R=1.482869
$end
   
$rem
mem_static = 200
mem_total  = 7500
exchange = b3lyp
basis = 6-311+g(3df,2p)
scf_convergence = 7
symmetry = false
xc_grid = 000075000302
$end
