$molecule
0    1
S
X,1,1.
H,1,R,2,A
H,1,R,2,A,3,180.,0
 
R=1.339464
A=46.66533
$end
   
$rem
mem_static = 200
mem_total  = 7500
exchange = b3lyp
basis = 6-311+g(3df,2p)
scf_convergence = 7
symmetry = false
xc_grid = 000075000302
$end
