$molecule
0    1
C
C,1,RCC
H,1,RCH,2,HCC
H,1,RCH,2,HCC,3,180.,0
H,2,RCH,1,HCC,3,0.,0
H,2,RCH,1,HCC,3,180.,0
 
RCC=1.33496
RCH=1.084788
HCC=121.711801
$end
   
$rem
mem_static = 200
mem_total  = 7500
exchange = b3lyp
basis = 6-311+g(3df,2p)
scf_convergence = 7
symmetry = false
xc_grid = 000075000302
$end
