$molecule
0    2
C
H,1,CH
H,1,CH,2,120.
H,1,CH,2,120.,3,180.,0
 
CH=1.07841
$end
   
$rem
mem_static = 200
mem_total  = 7500
exchange = b3lyp
basis = 6-311+g(3df,2p)
scf_convergence = 7
symmetry = false
xc_grid = 000075000302
$end
