$molecule
0    2
N
H,1,RBH
H,1,RBH,2,HBH
 
RBH=1.02805
HBH=103.337613
$end
   
$rem
mem_static = 200
mem_total  = 7500
exchange = b3lyp
basis = 6-311+g(3df,2p)
scf_convergence = 7
symmetry = false
xc_grid = 000075000302
$end
