$molecule
0    1
N
X,1,1.
H,1,RNH,2,XNH
H,1,RNH,2,XNH,3,120.,0
H,1,RNH,2,XNH,3,240.,0
 
RNH=1.016793
XNH=112.450403
$end
   
$rem
mem_static = 200
mem_total  = 7500
exchange = b3lyp
basis = 6-311+g(3df,2p)
scf_convergence = 7
symmetry = false
xc_grid = 000075000302
$end
