$molecule
0    1
C
C,1,CC
X,2,1.,1,90.
H,2,CH,3,90.,1,180.,0
X,1,1.,2,90.,3,180.,0
H,1,CH,5,90.,2,180.,0
 
CC=1.21616
CH=1.06591
$end
   
$rem
mem_static = 200
mem_total  = 7500
exchange = b3lyp
basis = 6-311+g(3df,2p)
scf_convergence = 7
symmetry = false
xc_grid = 000075000302
$end
