lattice_vector 1.9216 -3.3283 0.0000
lattice_vector 1.9216 3.3283 0.0000
lattice_vector 0.0000 0.0000 6.2760

atom   1.9216 1.1094 0.0000 Al
atom   1.9216 -1.1094 3.1380 Al
atom   1.9216 1.1094 2.3535 P
atom   1.9216 -1.1094 5.4915 P
