$molecule
1     2
    C      0.00014010     -0.00002617      0.00001064
    H     -0.82358727      0.66005944     -0.37507131
    H      0.65983140      0.82408544      0.37444389
    H      0.82315599     -0.66098965     -0.37436553
    H     -0.66106955     -0.82284343      0.37486614
$end
   
$rem
mem_static = 200
mem_total  = 7500
exchange = b3lyp
basis = G3Large
max_scf_cycles = 50
scf_convergence = 7
symmetry = false
xc_grid = 000075000302
$end
