#p b3lyp 6-311+g(3df,2p) scf=tight nosymm

OH+ 3-SIGMA //MP2(full)/6-31G* MP2=-75.0677739

1    3
H
O,1,R
 
R=1.034581
  
 
 
