#p b3lyp 6-311+g(3df,2p) scf=tight nosymm

mg+ mp2(full)/6-31g* MP2=-199.3585131

1    2
mg
 
 
 
