#p b3lyp 6-311+g(3df,2p) scf=tight nosymm

na+ mp2(full)/6-31g* MP2=-161.6607843

1    1
na
 
 
 
