#p b3lyp 6-311+g(3df,2p) scf=tight nosymm

li+ mp2(full)/6-31g* -7.2359397

1    1
li
 
 
 
