#p b3lyp 6-311+g(3df,2p) scf=tight nosymm

P+ mp2(full)/6-31g* MP2=-340.3829831

1    3
P
 
 
 
