#p b3lyp 6-311+g(3df,2p) scf=tight nosymm

PLANAR AMMONIA CATION //MP2(full)/6-31G* MP2=-56.006942

1    2
N
H,1,RNH
H,1,RNH,2,120.
H,1,RNH,2,120.,3,180.,0
 
RNH=1.025985
  
 
 
