#p b3lyp 6-311+g(3df,2p) scf=tight nosymm

Si+ mp2(full)/6-31g* MP2=-288.5959386

1    2
Si
 
 
 
