#p b3lyp 6-311+g(3df,2p) scf=tight nosymm

SH2+ 2A1 //MP2(full)/6-31G* MP2=-398.3480896

1    2
S
H,1,R1
H,1,R1,2,A
 
R1=1.353158
A=126.60501
  
8,9
 
 
