#p b3lyp 6-311+g(3df,2p) scf=tight nosymm

Be+ mp2(full)/6-31g* MP2=-14.2785766

1    2
be
 
 
 
