#p b3lyp 6-311+g(3df,2p) scf=tight nosymm

PH2+ 1A1 //MP2(full)/6-31G* MP2=-341.5970934

1    1
P
H,1,R1
H,1,R1,2,A
 
R1=1.415438
A=93.410417
  
 
 
