#p b3lyp 6-311+g(3df,2p) scf=tight nosymm

HCL+ //MP2(full)/6-31G* MP2=-459.7520272

1    2
Cl
H,1,R
 
R=1.3098
  
 
 
