#p b3lyp 6-311+g(3df,2p) scf=tight nosymm

PH+ mp2(full)/6-31g* MP2=-340.9817281

1    2
P
H,1,1.42
 
 
 
