#p b3lyp 6-311+g(3df,2p) scf=tight nosymm

S2+ 2-PIG //MP2(full)/6-31G* MP2=-794.9350475

1    2
S
S,1,R1
 
R1=1.86912
  
 
 
