#p b3lyp 6-311+g(3df,2p) scf=tight nosymm

N2+ 2-sigma-g //MP2(full)/6-31G* MP2=-108.71122

1    2
N
N,1,NN
 
NN=1.146572
  
 
 
