#p b3lyp 6-311+g(3df,2p) scf=tight nosymm

CLF+ //MP2(full)/6-31G* MP2=-558.6884868

1    2
Cl
F,1,r
 
r=1.5548
  
 
 
