#p b3lyp 6-311+g(3df,2p) scf=tight nosymm

P2+ 2-PIU //MP2(full)/6-31G* MP2=-681.2796357
alter B 14,15

1    2
P
P,1,R1
 
R1=2.009857
  
14 15
 
 
