#p b3lyp 6-311+g(3df,2p) scf=tight nosymm

O2+ //MP2(full)/6-31G* MP2=-149.5310341

1    2
O
O,1,OO
 
OO=1.186898
  
 
 
