#p b3lyp 6-311+g(3df,2p) scf=tight nosymm

CL2+ 2-PIG //MP2(full)/6-31G* MP2=-918.7797275

1    2
Cl
Cl,1,R1
 
R1=1.928097
  
 
 
