#p b3lyp 6-311+g(3df,2p) scf=tight nosymm

nh2- //mp2(full)/6-31g* MP2=-55.6499369

-1    1
N
H,1,RNH
H,1,RNH,2,HNH
 
RNH=1.042632
HNH=98.432415
  
 
 
