#p b3lyp 6-311+g(3df,2p) scf=tight nosymm

F  singlet mp2(full)/6-31g* MP2=-99.5285086

-1    1
F
 
 
 
