#p b3lyp 6-311+g(3df,2p) scf=tight nosymm

CS+ 2-SG  //MP2(full)/6-31G* MP2=-435.1305686

1    2
C
S,1,R1
 
R1=1.458781
  
 
 
