#p b3lyp 6-311+g(3df,2p) scf=tight nosymm

Oxygen  doublet mp2(full)/6-31g* MP2=-74.8598673

-1    2
O
 
 
 
