#p b3lyp 6-311+g(3df,2p) scf=tight nosymm

C  quartet mp2(full)/6-31g* MP2=-37.728092

-1    4
C
 
 
 
