#p b3lyp 6-311+g(3df,2p) scf=tight nosymm

OH- //mp2(full)/6-31g* MP2=-75.5154393

-1    1
O
H,1,r
 
r=0.980348
  
 
 
