#p b3lyp 6-311+g(3df,2p) scf=tight nosymm

CH2- //mp2(full)/6-31g* MP2=-38.959817

-1    2
C
H,1,r
H,1,r,2,a
 
r=1.14059
a=97.917282
  
 
 
