#p b3lyp 6-311+g(3df,2p) scf=tight nosymm

METHYL ANION C3V //mp2(full)/6-31g* MP2=-39.6070093

-1    1
C
X,1,1.
H,1,R,2,A
H,1,R,2,A,3,120.,0
H,1,R,2,A,3,-120.,0
 
R=1.120888
A=116.546186
  
 
 
