#p b3lyp 6-311+g(3df,2p) scf=tight nosymm

o2-  //mp2(full)/6-31g* MP2=-149.9202213

-1    2
O
O,1,OO
 
OO=1.379745
  
 
 
