#p b3lyp 6-311+g(3df,2p) scf=tight nosymm

S  doublet mp2(full)/6-31g* MP2=-397.5987309

-1    2
S
 
 
 
