#p b3lyp 6-311+g(3df,2p) scf=tight nosymm

SIH2- 2-B-1 //mp2(full)/6-31g* MP2=-290.0925952

-1    2
Si
X,1,1.
H,1,R,2,A
H,1,R,2,A,3,180.,0
 
R=1.550319
A=46.188316
  
 
 
