#p b3lyp 6-311+g(3df,2p) scf=tight nosymm

SIH- 3-sigma //mp2(full)/6-31g* MP2=-289.4951319

-1    3
Si
H,1,R
 
R=1.560836
  
 
 
