#p b3lyp 6-311+g(3df,2p) scf=tight nosymm

NO- 3Sigma- //mp2(full)/6-31g* MP2=-129.5232476

-1    3
N
O,1,NO
 
NO=1.28013
  
 
 
