#p b3lyp 6-311+g(3df,2p) scf=tight nosymm

CN- //mp2(full)/6-31g* MP2=-92.5706802

-1    1
C
N,1,CN
 
CN=1.200154
  
 
 
