#p b3lyp 6-311+g(3df,2p) scf=tight nosymm

Ammonium, NH4+, //mp2(full)/6-31g* MP2=-56.7035842

1    1
N
H,1,NH
H,1,NH,2,109.47122
H,1,NH,2,109.47122,3,109.47122,1
H,1,NH,2,109.47122,3,109.47122,-1
 
NH=1.02853
  
 
 
