#p b3lyp 6-311+g(3df,2p) scf=tight nosymm

O+ mp2(full)/6-31g* MP2=-74.4061728

1    4
O
 
 
 
