#p b3lyp 6-311+g(3df,2p) scf=tight nosymm

cation: H3+  d3h   mp2(full)/6-31G* geom

1    1
h1
h2 h1 0.85108753
h3 h1 0.85108753 h2 60.
 
 
 
