#p b3lyp 6-311+g(3df,2p) scf=tight nosymm

Hydronium, H3O+, //mp2(full)/6-31g* MP2=-76.4776092

1    1
O
H,1,OH
H,1,OH,2,HOH
H,1,OH,2,HOH,3,HOH,1
 
OH=0.99082
HOH=111.42234
  
 
 
