#p b3lyp 6-311+g(3df,2p) scf=tight nosymm

s2- 2-sigma //mp2(full)/6-31g* MP2=-795.2945538

-1    2
S
S,1,R
 
R=2.029189
  
 
 
