#p b3lyp 6-311+g(3df,2p) scf=tight nosymm

SH- //mp2(full)/6-31g* MP2=-398.2207031

-1    1
S
H,1,R
 
R=1.353342
  
 
 
