#p b3lyp 6-311+g(3df,2p) scf=tight nosymm

F+ mp2(full)/6-31g* MP2=-98.871239

1    3
F
 
 
 
