#p b3lyp 6-311+g(3df,2p) scf=tight nosymm

H2CL+ //mp2(full)/6-31g* MP2=-460.4125779

1    1
Cl
H,1,R1
H,1,R1,2,A
 
R1=1.302176
A=96.635367
  
 
 
