#p b3lyp 6-311+g(3df,2p) scf=tight nosymm

PH4+ //mp2(full)/6-31g* MP2=-342.8710603

1    1
P
H,1,R1
H,1,R1,2,109.471221
H,1,R1,2,109.471221,3,120.,0
H,1,R1,2,109.471221,3,-120.,0
 
R1=1.39292
  
 
 
