#p b3lyp 6-311+g(3df,2p) scf=tight nosymm

h hf/6-31g*

0    2
h
 
 
 
