#p b3lyp 6-311+g(3df,2p) scf=tight nosymm

Methane (CH4), Td symm. MP2(full)/6-31G* Geom. MP2=-40.3370426

0    1
C
H,1,RCH
H,1,RCH,2,109.471221
H,1,RCH,2,109.471221,3,109.471221,1
H,1,RCH,2,109.471221,3,109.471221,-1
 
RCH=1.089665
  
 
 
