#p b3lyp 6-311+g(3df,2p) scf=tight nosymm

OH radical, C*v symm. MP2(full)/6-31G* Geom. MP2=-75.5232063

0    2
O
H,1,ROH
 
ROH=0.97907
  
 
 
