#p b3lyp 6-311+g(3df,2p) scf=tight nosymm

Hydrogen fluoride (HF), C*v symm. MP2(full)/6-31G* Geom. MP2=-100.1841614

0    1
F
H,1,R
 
R=0.933891
  
 
 
