#p b3lyp 6-311+g(3df,2p) scf=tight nosymm

Water (H2O), C2v symm. MP2(full)/6-31G* Geom. MP2=-76.1992442

0    1
O
H,1,OH
H,1,OH,2,HOH
 
OH=0.968565
HOH=103.999825
  
 
 
