#p b3lyp 6-311+g(3df,2p) scf=tight nosymm

PH TRIPLET //MP2(full)/6-31G*

0    3
P
H,1,R
 
R=1.425635
  
 
 
