#p b3lyp 6-311+g(3df,2p) scf=tight nosymm

SH radical, C*v symm. MP2(full)/6-31G* geom. MP2=-398.1720853

0    2
S
H,1,R
 
R=1.344413
  
 
 
