#p b3lyp 6-311+g(3df,2p) scf=tight nosymm

Hydrogen sulfide (H2S), C2v symm. MP2(full)/6-31G* Geom. MP2=-398.7986975

0    1
S
X,1,1.
H,1,R,2,A
H,1,R,2,A,3,180.,0
 
R=1.339464
A=46.66533
  
 
 
