#p b3lyp 6-311+g(3df,2p) scf=tight nosymm

Ethylene (H2C=CH2), D2h symm. MP2(full)/6-31G* Geom. MP2=-78.2942862

0    1
C
C,1,RCC
H,1,RCH,2,HCC
H,1,RCH,2,HCC,3,180.,0
H,2,RCH,1,HCC,3,0.,0
H,2,RCH,1,HCC,3,180.,0
 
RCC=1.33496
RCH=1.084788
HCC=121.711801
  
 
 
