#p b3lyp 6-311+g(3df,2p) scf=tight nosymm

Acetylene (C2H2), D*h symm. MP2(full)/6-31G* Geom. MP2=-77.0762154

0    1
C
C,1,CC
X,2,1.,1,90.
H,2,CH,3,90.,1,180.,0
X,1,1.,2,90.,3,180.,0
H,1,CH,5,90.,2,180.,0
 
CC=1.21616
CH=1.06591
  
 
 
