#p b3lyp 6-311+g(3df,2p) scf=tight nosymm

P2 molecule, D*h symm. MP2(full)/6-31G* Geom. MP2=-681.6646966

0    1
P
P,1,PP
 
PP=1.932288
  
 
 
