#p b3lyp 6-311+g(3df,2p) scf=tight nosymm

N2 molecule, D*h symm. MP2(full)/6-31G* Geom. MP2=-109.2615742

0    1
N
N,1,NN
 
NN=1.12998
  
 
 
