#p b3lyp 6-311+g(3df,2p) scf=tight nosymm

Carbon monoxide (CO), C*v symm. MP2(full)/6-31G* Geom. MP2=-113.0281795

0    1
O
C,1,RCO
 
RCO=1.15034
  
 
 
