#p b3lyp 6-311+g(3df,2p) scf=tight nosymm

Hydrogen chloride (HCl), C*v symm. MP2(full)/6-31G* Geom. MP2=-460.2021493

0    1
Cl
H,1,R
 
R=1.279978
  
 
 
