#p b3lyp 6-311+g(3df,2p) scf=tight nosymm

O2 molecule, D*h symm, Triplet. MP2(full)/6-31G* Geom. MP2=-149.9543197

0    3
O
O,1,r
 
r=1.245957
  
 
 
