#p b3lyp 6-311+g(3df,2p) scf=tight nosymm

NH, triplet, C*v symm. MP2(full)/6-31G* Geom. MP2=-55.0614242

0    3
N
H,1,RNH
 
RNH=1.03943
  
 
 
