#p b3lyp 6-311+g(3df,2p) scf=tight nosymm

Methyl radical (CH3), D3h symm. MP2(full)/6-31G* Geom. MP2=-39.6730312

0    2
C
H,1,CH
H,1,CH,2,120.
H,1,CH,2,120.,3,180.,0
 
CH=1.07841
  
 
 
