#p b3lyp 6-311+g(3df,2p) scf=tight nosymm

CH radical. Doublet, C*v symm. MP2(full)/6-31G* Geom. MP2=-38.3423986

0    2
C
H,1,RCH
 
RCH=1.12052
  
 
 
