#p b3lyp 6-311+g(3df,2p) scf=tight nosymm

ClF molecule, C*v symm, 1-SG. MP2(full)/6-31G* Geom. MP2=-559.1392996

0    1
F
Cl,1,R1
 
R1=1.659096
  
 
 
