#p b3lyp 6-311+g(3df,2p) scf=tight nosymm

Triplet methylene (CH2), C2v symm, 3-B1. MP2(full)/6-31G* Geom. MP2=-39.0074352

0    3
C
H,1,RCH
H,1,RCH,2,HCH
 
RCH=1.07726
HCH=131.60824
  
 
 
