#p b3lyp 6-311+g(3df,2p) scf=tight nosymm

Carbon monosulfide (CS), C*v symm. MP2(full)/6-31G* Geom. MP2=-435.5576809

0    1
C
S,1,CS
 
CS=1.54465
  
 
 
