#p b3lyp 6-311+g(3df,2p) scf=tight nosymm

NH2 radical, C2v symm, 2-B1. MP2(full)/6-31G* Geom. MP2=-55.6937452

0    2
N
H,1,RBH
H,1,RBH,2,HBH
 
RBH=1.02805
HBH=103.337613
  
 
 
