#p b3lyp 6-311+g(3df,2p) scf=tight nosymm

SiH //mp2(full)/6-31G*

0    2
si
h si 1.526259
 
 
 
