#p b3lyp 6-311+g(3df,2p) scf=tight nosymm

Cyano radical (CN), C*v symm, 2-Sigma+. MP2(full)/6-31G* Geom. MP2=-92.441963

0    2
C
N,1,R
 
R=1.134799
  
 
 
