#p b3lyp 6-311+g(3df,2p) scf=tight nosymm

Singlet silylene (SiH2), C2v symm, 1-A1. MP2(full)/6-31G* Geom.
MP2=-290.0772034

0    1
Si
X,1,1.
H,1,R,2,A
H,1,R,2,A,3,180.,0
 
R=1.5186
A=46.2476
  
 
 
