#p b3lyp 6-311+g(3df,2p) scf=tight nosymm

NO radical, C*v symm, 2-Pi. MP2(full)/6-31G* Geom. MP2=-129.564464

0    2
N
O,1,r
 
r=1.142703
  
 
 
