#p b3lyp 6-311+g(3df,2p) scf=tight nosymm

H2. D*h symm. MP2(full)/6-31G* geom. MP2=-1.1441408

0    1
H
H,1,r
 
r=0.737166
  
 
 
