#p b3lyp 6-311+g(3df,2p) scf=tight nosymm

PO 2-PI //mp2(full)/6-31g* MP2=-415.8397251
scf=qc for dft. For mp2: 1) hf/6-31g* 2) mp2 scf=qc

0    2
P
O,1,R
 
R=1.537713
  
 
 
