#p b3lyp 6-311+g(3df,2p) scf=tight nosymm

Silyl radical (SiH3), C3v symm. MP2(full)/6-31G* Geom. MP2=-290.6841563

0    2
Si
X,1,1.
H,1,R,2,BETA
H,1,R,2,BETA,3,120.,0
H,1,R,2,BETA,3,-120.,0
 
R=1.482999
BETA=107.638334
  
 
 
