#p b3lyp 6-311+g(3df,2p) scf=tight nosymm

Cl2 molecule, D*h symm. MP2(full)/6-31G* Geom. MP2=-919.191224

0    1
Cl
Cl,1,R
 
R=2.015082
  
 
 
