#p b3lyp 6-311+g(3df,2p) scf=tight nosymm

S2 molecule, D*h symm, triplet. MP2(full)/6-31G* Geom. MP2=-795.2628131

0    3
S
S,1,R
 
R=1.920226
  
 
 
