#p b3lyp 6-311+g(3df,2p) scf=tight nosymm

PH2 radical, C2v symm. MP2(full)/6-31G* Geom. MP2=-341.9457892

0    2
P
X,1,1.
H,1,R,2,A
H,1,R,2,A,3,180.,0
 
R=1.419167
A=46.278424
  
 
 
