#p b3lyp 6-311+g(3df,2p) scf=tight nosymm

Ammonia (NH3), C3v symm. MP2(full)/6-31G* Geom. MP2=-56.3573777

0    1
N
X,1,1.
H,1,RNH,2,XNH
H,1,RNH,2,XNH,3,120.,0
H,1,RNH,2,XNH,3,240.,0
 
RNH=1.016793
XNH=112.450403
  
 
 
