#p b3lyp 6-311+g(3df,2p) scf=tight nosymm

N

0    4
N
 
 
 
