#p b3lyp 6-311+g(3df,2p) scf=tight nosymm

Phosphine (PH3), C3v symm. MP2(full)/6-31G* Geom. MP2=-342.562259

0    1
P
X,1,1.
H,1,R,2,BETA
H,1,R,2,BETA,3,120.,0
H,1,R,2,BETA,3,-120.,0
 
R=1.414436
BETA=121.912965
  
 
 
