#p b3lyp 6-311+g(3df,2p) scf=tight nosymm

Silane (SiH4), Td symm. MP2(full)/6-31G* Geom. MP2=-291.3168497

0    1
Si
H,1,R
H,1,R,2,109.471221
H,1,R,2,109.471221,3,120.,0
H,1,R,2,109.471221,3,-120.,0
 
R=1.482869
  
 
 
