$molecule
0    1
    C     -0.94243300     -0.39094821      0.00000000
    C      0.32775798      0.43504354      0.00000000
    O      1.44127783     -0.46307238      0.00000000
    H      2.25487883      0.05221254      0.00000000
    H     -1.82041256      0.25945713      0.00000000
    H     -0.98520094     -1.02878956     -0.88479819
    H     -0.98520094     -1.02878956      0.88479819
    H      0.35466640      1.08244325      0.88660160
    H      0.35466640      1.08244325     -0.88660160
$end
   
$rem
mem_static = 200
mem_total  = 7500
exchange = b3lyp
basis = G3Large
max_scf_cycles = 50
scf_convergence = 7
symmetry = false
xc_grid = 000075000302
$end
