$molecule
0    1
    C     -0.59462263      0.26191567      0.00000000
    C      0.79165195     -0.31846811      0.00000000
    O      1.80877774      0.32844986      0.00000000
    H     -0.56041293      1.35044661      0.00000000
    H     -1.14144400     -0.09664657      0.87804031
    H     -1.14144400     -0.09664657     -0.87804031
    H      0.83749387     -1.42905088      0.00000000
$end
   
$rem
mem_static = 200
mem_total  = 7500
exchange = b3lyp
basis = G3Large
max_scf_cycles = 50
scf_convergence = 7
symmetry = false
xc_grid = 000075000302
$end
