$molecule
0    1
    C      0.00000000      0.00000000     -0.48852111
    C      0.00000000      0.00000000      0.96697243
    N      0.00000000      0.00000000      2.11795701
    H     -0.51193738     -0.88670156     -0.86546945
    H     -0.51193738      0.88670156     -0.86546945
    H      1.02387477      0.00000000     -0.86546945
$end
   
$rem
mem_static = 200
mem_total  = 7500
exchange = b3lyp
basis = G3Large
max_scf_cycles = 50
scf_convergence = 7
symmetry = false
xc_grid = 000075000302
$end
