$molecule
0    1
    C     -0.96298974      0.08007496      0.00000000
    C      0.53058977      0.25142252      0.00000000
    O      1.16969489     -0.94801168      0.00000000
    O      1.12511878      1.29867159      0.00000000
    H      2.12235455     -0.76340826      0.00000000
    H     -1.44059983      1.05608631      0.00000000
    H     -1.27208421     -0.48741771      0.87972924
    H     -1.27208421     -0.48741771     -0.87972924
$end
   
$rem
mem_static = 200
mem_total  = 7500
exchange = b3lyp
basis = G3Large
max_scf_cycles = 50
scf_convergence = 7
symmetry = false
xc_grid = 000075000302
$end
