$molecule
0    1
    C     -1.47550947      0.12447595      0.00000000
    C     -0.11406936     -0.53033344      0.00000000
    C      1.03107514      0.09058986      0.75487276
    C      1.03107514      0.09058986     -0.75487276
    H     -2.05349390     -0.15965898     -0.88404554
    H     -2.05349390     -0.15965898      0.88404554
    H     -1.38502311      1.21413539      0.00000000
    H     -0.13771821     -1.61563192      0.00000000
    H      0.84920437      1.03238657      1.25933934
    H      1.72937446     -0.55964043      1.26697590
    H      0.84920437      1.03238657     -1.25933934
    H      1.72937446     -0.55964043     -1.26697590
$end
   
$rem
mem_static = 200
mem_total  = 7500
exchange = b3lyp
basis = G3Large
max_scf_cycles = 50
scf_convergence = 7
symmetry = false
xc_grid = 000075000302
$end
