$molecule
0    1
    C      0.00000000      0.00000000      0.06652666
    F      0.00000000      0.00000000     -1.32599103
    H      0.51635563      0.89435418      0.41982146
    H      0.51635563     -0.89435418      0.41982146
    H     -1.03271125      0.00000000      0.41982146
$end
   
$rem
mem_static = 200
mem_total  = 7500
exchange = b3lyp
basis = G3Large
max_scf_cycles = 50
scf_convergence = 7
symmetry = false
xc_grid = 000075000302
$end
