$molecule
0    1
    C     -0.56760089      0.09225707      0.00000000
    N      0.89401101      0.17501316      0.00000000
    H      1.28469243     -0.28172731      0.81563689
    H      1.28469243     -0.28172731     -0.81563689
    H     -0.95722225      0.61157887      0.87795269
    H     -0.98135048     -0.92697335      0.00000000
    H     -0.95722225      0.61157887     -0.87795269
$end
   
$rem
mem_static = 200
mem_total  = 7500
exchange = b3lyp
basis = G3Large
max_scf_cycles = 50
scf_convergence = 7
symmetry = false
xc_grid = 000075000302
$end
