$molecule
1    1
    C      0.00000000      0.00000000     -0.77060079
    N      0.00000000      0.00000000      0.74478827
    H     -0.47664430      0.82557214      1.11980081
    H     -0.47664430     -0.82557214      1.11980081
    H      0.95328860      0.00000000      1.11980081
    H     -1.03205449      0.00000000     -1.11119664
    H      0.51602724      0.89378540     -1.11119664
    H      0.51602724     -0.89378540     -1.11119664
$end
   
$rem
mem_static = 200
mem_total  = 7500
exchange = b3lyp
basis = G3Large
max_scf_cycles = 50
scf_convergence = 7
symmetry = false
xc_grid = 000075000302
$end
