$molecule
0    1
    C     -0.10410641     -0.05570877     -1.21691512
    N      0.68860268     -0.15516156      0.00000000
    H      1.41400657      0.55170707      0.00000000
    C     -0.10410641     -0.05570877      1.21691512
    H      0.55297976     -0.08397921     -2.08809650
    H     -0.72295645      0.85629175     -1.27833043
    H     -0.77722153     -0.91487652     -1.28438595
    H     -0.77722153     -0.91487652      1.28438595
    H     -0.72295645      0.85629175      1.27833043
    H      0.55297976     -0.08397921      2.08809650
$end
   
$rem
mem_static = 200
mem_total  = 7500
exchange = b3lyp
basis = G3Large
max_scf_cycles = 50
scf_convergence = 7
symmetry = false
xc_grid = 000075000302
$end
