$molecule
0    1
    C     -0.69511673     -1.20397749     -0.03990021
    N      0.00000000      0.00000000     -0.46512142
    C     -0.69511673      1.20397749     -0.03990021
    C      1.39023346      0.00000000     -0.03990021
    H     -1.71400260     -1.20203597     -0.43275205
    H     -0.75292359     -1.30410192      1.06044479
    H     -0.18399239     -2.08538778     -0.43275205
    H     -1.71400260      1.20203597     -0.43275205
    H     -0.18399239      2.08538778     -0.43275205
    H     -0.75292359      1.30410192      1.06044479
    H      1.89799498     -0.88335181     -0.43275205
    H      1.89799498      0.88335181     -0.43275205
    H      1.50584719      0.00000000      1.06044479
$end
   
$rem
mem_static = 200
mem_total  = 7500
exchange = b3lyp
basis = G3Large
max_scf_cycles = 50
scf_convergence = 7
symmetry = false
xc_grid = 000075000302
$end
