$molecule
0    1
    C      0.66349793     -0.00785642      0.00000000
    N     -0.84039189     -0.01709144      0.00000000
    O     -1.39776878     -0.00425297     -1.08638593
    O     -1.39776878     -0.00425297      1.08638593
    H      1.00250255     -0.50224395      0.90467155
    H      0.96742641      1.03794170      0.00000000
    H      1.00250255     -0.50224395     -0.90467155
$end
   
$rem
mem_static = 200
mem_total  = 7500
exchange = b3lyp
basis = G3Large
max_scf_cycles = 50
scf_convergence = 7
symmetry = false
xc_grid = 000075000302
$end
