$molecule
0    1
    N     -2.51549434     -0.22284983      0.00000000
    C     -1.40128597      0.07787649      0.00000000
    C     -0.03182306      0.47829494      0.00000000
    C      0.98129362     -0.38749669      0.00000000
    H      0.14382872      1.54858366      0.00000000
    H      0.81845058     -1.45773585      0.00000000
    H      2.00503045     -0.03667272      0.00000000
$end
   
$rem
mem_static = 200
mem_total  = 7500
exchange = b3lyp
basis = G3Large
max_scf_cycles = 50
scf_convergence = 7
symmetry = false
xc_grid = 000075000302
$end
