$molecule
0    1
    C     -0.34178642      0.12129332      0.00000000
    O      1.07982841      0.19878835      0.00000000
    H      1.43664403     -0.69532472      0.00000000
    H     -0.71318581      1.14551846      0.00000000
    H     -0.73075010     -0.38513771     -0.89146635
    H     -0.73075010     -0.38513771      0.89146635
$end
   
$rem
mem_static = 200
mem_total  = 7500
exchange = b3lyp
basis = G3Large
max_scf_cycles = 50
scf_convergence = 7
symmetry = false
xc_grid = 000075000302
$end
