$molecule
0    1
    C      0.00000000     -1.39649374      0.01611279
    S      0.00000000      0.00000000      1.19861269
    C      0.00000000      1.39649374      0.01611279
    H      0.00000000     -2.31224638      0.60621508
    H     -0.89236330     -1.38056214     -0.61081711
    H      0.89236330     -1.38056214     -0.61081711
    H      0.00000000      2.31224638      0.60621508
    H     -0.89236330      1.38056214     -0.61081711
    H      0.89236330      1.38056214     -0.61081711
$end
   
$rem
mem_static = 200
mem_total  = 7500
exchange = b3lyp
basis = G3Large
max_scf_cycles = 50
scf_convergence = 7
symmetry = false
xc_grid = 000075000302
$end
