$molecule
0    1
    C     -0.46481411      0.19511100      0.00000000
    S      1.37476050      0.25112420      0.00000000
    H      1.57790555     -1.08429433      0.00000000
    H     -0.79878418      1.23132118      0.00000000
    H     -0.84453388     -0.29663103     -0.89359015
    H     -0.84453388     -0.29663103      0.89359015
$end
   
$rem
mem_static = 200
mem_total  = 7500
exchange = b3lyp
basis = G3Large
max_scf_cycles = 50
scf_convergence = 7
symmetry = false
xc_grid = 000075000302
$end
