$molecule
0    1
    F     -1.70885680     -0.27641577      0.00000000
    C     -0.51014220      0.34736401      0.00000000
    C      0.62731808     -0.31909462      0.00000000
    H     -0.62149122      1.42444596      0.00000000
    H      0.65160902     -1.40061495      0.00000000
    H      1.56156312      0.22431537      0.00000000
$end
   
$rem
mem_static = 200
mem_total  = 7500
exchange = b3lyp
basis = G3Large
max_scf_cycles = 50
scf_convergence = 7
symmetry = false
xc_grid = 000075000302
$end
