$molecule
0    1
    C     -0.88787044     -0.88787044     -0.88787044
    C      0.00000000      0.00000000      0.00000000
    C      0.88787044      0.88787044     -0.88787044
    C     -0.88787044      0.88787044      0.88787044
    C      0.88787044     -0.88787044      0.88787044
    H     -1.53176772     -0.28230737     -1.53176772
    H     -0.28230737     -1.53176772     -1.53176772
    H     -1.53176772     -1.53176772     -0.28230737
    H      0.28230737      1.53176772     -1.53176772
    H      1.53176772      1.53176772     -0.28230737
    H      1.53176772      0.28230737     -1.53176772
    H     -1.53176772      1.53176772      0.28230737
    H     -1.53176772      0.28230737      1.53176772
    H     -0.28230737      1.53176772      1.53176772
    H      1.53176772     -1.53176772      0.28230737
    H      1.53176772     -0.28230737      1.53176772
    H      0.28230737     -1.53176772      1.53176772
$end
   
$rem
mem_static = 200
mem_total  = 7500
exchange = b3lyp
basis = G3Large
max_scf_cycles = 50
scf_convergence = 7
symmetry = false
xc_grid = 000075000302
$end
