$molecule
0    1
    C      0.00000000      0.00000000      0.85278024
    C      0.00000000      0.00000000     -0.66021523
   Cl     -0.85000705     -1.47225539     -1.28255706
   Cl     -0.85000705      1.47225539     -1.28255706
   Cl      1.70001409      0.00000000     -1.28255706
    H      0.51313606     -0.88877773      1.21836873
    H      0.51313606      0.88877773      1.21836873
    H     -1.02627212      0.00000000      1.21836873
$end
   
$rem
mem_static = 200
mem_total  = 7500
exchange = b3lyp
basis = G3Large
max_scf_cycles = 50
scf_convergence = 7
symmetry = false
xc_grid = 000075000302
$end
