$molecule
0    1
    C      0.00000000     -1.28520647     -0.26484004
    C      0.00000000      0.00000000      0.53088486
    F      1.10274159      0.00000000      1.37023786
    F     -1.10274159      0.00000000      1.37023786
    C      0.00000000      1.28520647     -0.26484004
    H      0.00000000     -2.13344197      0.41963102
    H     -0.88808833     -1.33557030     -0.89523564
    H      0.88808833     -1.33557030     -0.89523564
    H      0.88808833      1.33557030     -0.89523564
    H     -0.88808833      1.33557030     -0.89523564
    H      0.00000000      2.13344197      0.41963102
$end
   
$rem
mem_static = 200
mem_total  = 7500
exchange = b3lyp
basis = G3Large
max_scf_cycles = 50
scf_convergence = 7
symmetry = false
xc_grid = 000075000302
$end
