$molecule
0    1
    C     -0.64259464     -0.48380195      0.00000000
    C      0.45793114      0.55510294      0.00000000
   Cl      2.11462100     -0.22176856      0.00000000
    H     -1.61451347      0.01910967      0.00000000
    H     -0.58656341     -1.11884048     -0.88492707
    H     -0.58656341     -1.11884048      0.88492707
    H      0.42884139      1.18451943      0.88645916
    H      0.42884139      1.18451943     -0.88645916
$end
   
$rem
mem_static = 200
mem_total  = 7500
exchange = b3lyp
basis = G3Large
max_scf_cycles = 50
scf_convergence = 7
symmetry = false
xc_grid = 000075000302
$end
