$molecule
0    2
    C      1.22625682      0.00000000     -0.16437228
    C      0.00000000      0.00000000      0.47192731
    C     -1.22625682      0.00000000     -0.16437228
    H      1.29645492      0.00000000     -1.24599926
    H      2.15227859      0.00000000      0.39469835
    H      0.00000000      0.00000000      1.55941906
    H     -1.29645492      0.00000000     -1.24599926
    H     -2.15227859      0.00000000      0.39469835
$end
   
$rem
mem_static = 200
mem_total  = 7500
exchange = b3lyp
basis = G3Large
max_scf_cycles = 50
scf_convergence = 7
symmetry = false
xc_grid = 000075000302
$end
