$molecule
0    2
    H      0.93451147      0.00000000     -1.11036696
    C      0.00000000      0.00000000     -0.56702690
    C      0.00000000      0.00000000      0.81028125
    H     -0.93451147      0.00000000     -1.11036696
    N      0.00000000      0.00000000      1.97747957
$end
   
$rem
mem_static = 200
mem_total  = 7500
exchange = b3lyp
basis = G3Large
max_scf_cycles = 50
scf_convergence = 7
symmetry = false
xc_grid = 000075000302
$end
