$molecule
0    2
    C      0.00000000      0.00000000      0.92003279
    C      1.21510639      0.00000000      0.17788580
    C      1.20838485      0.00000000     -1.20344040
    C      0.00000000      0.00000000     -1.90734489
    C     -1.20838485      0.00000000     -1.20344040
    C     -1.21510639      0.00000000      0.17788580
    C      0.00000000      0.00000000      2.32263853
    H      2.15586142      0.00000000      0.71671909
    H      2.14697007      0.00000000     -1.74543112
    H      0.00000000      0.00000000     -2.99035937
    H     -2.14697007      0.00000000     -1.74543112
    H     -2.15586142      0.00000000      0.71671909
    H      0.92638126      0.00000000      2.88178311
    H     -0.92638126      0.00000000      2.88178311
$end
   
$rem
mem_static = 200
mem_total  = 7500
exchange = b3lyp
basis = G3Large
max_scf_cycles = 50
scf_convergence = 7
symmetry = false
xc_grid = 000075000302
$end
