$molecule
0    2
    H      0.55168775      0.15329812     -0.95936959
    C      0.11680895     -0.08885398      0.00000000
    F     -1.22018445     -0.21774226      0.00000000
    H      0.55168775      0.15329812      0.95936959
$end
   
$rem
mem_static = 200
mem_total  = 7500
exchange = b3lyp
basis = G3Large
max_scf_cycles = 50
scf_convergence = 7
symmetry = false
xc_grid = 000075000302
$end
