$molecule
0    2
    C     -1.24962320     -0.03358838      0.00000000
    N      0.03607642      0.45681816      0.00000000
    H      0.17831790      1.45940440      0.00000000
    C      1.19271148     -0.28243210      0.00000000
    H     -2.06754060      0.66463721      0.00000000
    H     -1.39775691     -1.10067510      0.00000000
    O      2.30537705      0.20442384      0.00000000
    H      1.00243786     -1.36858804      0.00000000
$end
   
$rem
mem_static = 200
mem_total  = 7500
exchange = b3lyp
basis = G3Large
max_scf_cycles = 50
scf_convergence = 7
symmetry = false
xc_grid = 000075000302
$end
