$molecule
0    2
    C     -0.93713363     -0.31042453      0.07836434
    N      0.18609561      0.46428203     -0.08593921
    H     -0.99162033     -1.24262984     -0.46273710
    H      0.21242770      1.26867057      0.53276240
    H     -1.82238466      0.17605807      0.45996848
    O      1.42437658     -0.26951385      0.14063348
    H      1.92823873     -0.08644245     -0.66305239
$end
   
$rem
mem_static = 200
mem_total  = 7500
exchange = b3lyp
basis = G3Large
max_scf_cycles = 50
scf_convergence = 7
symmetry = false
xc_grid = 000075000302
$end
