$molecule
0    2
    C      0.00000000      0.00000000      0.73389664
    N      0.00000000      0.00000000     -0.67973088
    O     -1.09742864      0.00000000     -1.24760236
    O      1.09742864      0.00000000     -1.24760236
    H     -0.96173636      0.00000000      1.22051947
    H      0.96173636      0.00000000      1.22051947
$end
   
$rem
mem_static = 200
mem_total  = 7500
exchange = b3lyp
basis = G3Large
max_scf_cycles = 50
scf_convergence = 7
symmetry = false
xc_grid = 000075000302
$end
