$molecule
0    2
    N     -2.68744700      0.00639790      0.00000000
    C     -1.51544312      0.06789044      0.00000000
    C     -0.18796662      0.22785440      0.00000000
    C      1.08885789     -0.02516079      0.00000000
    H      1.47089865     -1.04653932      0.00000000
    H      1.83110020      0.76955738      0.00000000
$end
   
$rem
mem_static = 200
mem_total  = 7500
exchange = b3lyp
basis = G3Large
max_scf_cycles = 50
scf_convergence = 7
symmetry = false
xc_grid = 000075000302
$end
