$molecule
0    2
    C     -0.42633998      0.07513323      0.00000000
    O      0.94011394      0.18715716      0.00000000
    H      1.36671017     -0.67877654      0.00000000
    H     -0.94024207      0.20824308     -0.94555405
    H     -0.94024207      0.20824308      0.94555405
$end
   
$rem
mem_static = 200
mem_total  = 7500
exchange = b3lyp
basis = G3Large
max_scf_cycles = 50
scf_convergence = 7
symmetry = false
xc_grid = 000075000302
$end
