$molecule
0    2
    C     -1.12666542      0.78080734      0.00000000
    S     -0.70989340     -0.88709213      0.00000000
    C      1.09172059     -0.81310153      0.00000000
    O      1.74579726      0.19246799      0.00000000
    H     -0.34191598      1.52254135      0.00000000
    H     -2.17455289      1.03392454      0.00000000
    H      1.51550983     -1.82954756      0.00000000
$end
   
$rem
mem_static = 200
mem_total  = 7500
exchange = b3lyp
basis = G3Large
max_scf_cycles = 50
scf_convergence = 7
symmetry = false
xc_grid = 000075000302
$end
