$molecule
0    2
    C     -0.53029096     -0.24024341      0.00000000
    S      1.20579347     -0.29766028      0.00000000
    H      1.43659027      1.03218535      0.00000000
    H     -1.06678764      0.69292509      0.00000000
    H     -1.04530514     -1.18720675      0.00000000
$end
   
$rem
mem_static = 200
mem_total  = 7500
exchange = b3lyp
basis = G3Large
max_scf_cycles = 50
scf_convergence = 7
symmetry = false
xc_grid = 000075000302
$end
