$molecule
0    2
    C     -1.35869464     -0.71577464     -0.35900100
    S     -0.36114476      0.56052862      0.32849079
    C      1.33475229      0.06298577     -0.07763047
    H     -1.02177141     -1.74186399     -0.31295237
    H     -2.38596801     -0.45036085     -0.56372690
    O     -0.66564890      1.81493403     -0.39215661
    O     -0.50391774      0.50501340      1.80389206
    H      1.44449831      0.03112858     -1.15966307
    H      1.97354628      0.83423062      0.35054388
    H      1.54434859     -0.90082154      0.38220369
$end
   
$rem
mem_static = 200
mem_total  = 7500
exchange = b3lyp
basis = G3Large
max_scf_cycles = 50
scf_convergence = 7
symmetry = false
xc_grid = 000075000302
$end
