$molecule
0    2
    C      0.05013176      0.49299885      0.03840446
    C      1.37047834      0.07430982      0.05139196
    N      2.48218160     -0.27869243      0.05054098
    N     -0.99795357     -0.39892934      0.09127243
    H     -1.90795688     -0.06909208     -0.18718908
    H     -0.81268154     -1.36676874     -0.12201169
    H     -0.18419971      1.54617392      0.07759095
$end
   
$rem
mem_static = 200
mem_total  = 7500
exchange = b3lyp
basis = G3Large
max_scf_cycles = 50
scf_convergence = 7
symmetry = false
xc_grid = 000075000302
$end
