$molecule
0    2
    C      1.59360196     -0.25582600      0.00000000
    C      0.11784470      0.00167256      0.00000000
    C     -0.27847325      0.79453113     -1.26018457
    C     -0.63709702     -1.35384669      0.00000000
    C     -0.27847325      0.79453113      1.26018457
    H      2.12366344     -0.43641206      0.92775807
    H      2.12366344     -0.43641206     -0.92775807
    H     -0.00550551      0.24940354     -2.16765096
    H     -1.35736777      0.97004921     -1.28639650
    H      0.22365312      1.76449541     -1.28642684
    H     -1.71922841     -1.18872305      0.00000000
    H     -0.38353064     -1.94370565     -0.88378450
    H     -0.38353064     -1.94370565      0.88378450
    H     -1.35736777      0.97004921      1.28639650
    H     -0.00550551      0.24940354      2.16765096
    H      0.22365312      1.76449541      1.28642684
$end
   
$rem
mem_static = 200
mem_total  = 7500
exchange = b3lyp
basis = G3Large
max_scf_cycles = 50
scf_convergence = 7
symmetry = false
xc_grid = 000075000302
$end
