$molecule
0    2
    C      0.05346330     -0.50104694      0.00000000
    C      0.02891569      0.95596790      0.00000000
   Cl     -1.68692898     -1.13948004      0.00000000
   Cl      0.87725942     -1.13649131     -1.47819970
   Cl      0.87725942     -1.13649131      1.47819970
    H     -0.07523131      1.47873073     -0.93903553
    H     -0.07523131      1.47873073      0.93903553
$end
   
$rem
mem_static = 200
mem_total  = 7500
exchange = b3lyp
basis = G3Large
max_scf_cycles = 50
scf_convergence = 7
symmetry = false
xc_grid = 000075000302
$end
