$molecule
0    2
    C     -0.77285106      0.41760152      0.00000000
    C      0.45764011     -0.39898851      0.00000000
    F      1.60896674      0.44055625      0.00000000
    H     -1.18292355      0.79285219     -0.92838990
    H     -1.18292355      0.79285219      0.92838990
    H      0.53604565     -1.02243682     -0.89255086
    H      0.53604565     -1.02243682      0.89255086
$end
   
$rem
mem_static = 200
mem_total  = 7500
exchange = b3lyp
basis = G3Large
max_scf_cycles = 50
scf_convergence = 7
symmetry = false
xc_grid = 000075000302
$end
