$molecule
0   1
      C           -.120234    1.914070     .000000
      H           -.167295    3.007018     .000000
      O          -1.121857    1.220982     .000000
      O           1.121857    1.480489     .000000
      H           1.127582     .489024     .000000
      @O           1.121857   -1.220982     .000000
      @C            .120234   -1.914070     .000000
      @O          -1.121857   -1.480489     .000000
      @H          -1.127582    -.489024     .000000
      @H            .167295   -3.007018     .000000
$end
   
$rem
mem_static = 200
mem_total  = 7500
exchange = b3lyp
basis = 6-311+g(3df,2p)
scf_convergence = 7
symmetry = false
xc_grid = 000075000302
$end
