$molecule
0   1
      H                 0.000000    1.671891   -2.212555 
      C                -0.000000    0.605293   -2.199559 
      C                -0.000000   -0.605293   -2.199559 
      H                -0.000000   -1.671891   -2.212555
     @Cl                 0.000000   -0.000000    0.611880 
     @F                 0.000000   -0.000000    2.268651 
$end
   
$rem
mem_static = 200
mem_total  = 7500
exchange = b3lyp
basis = 6-311+g(3df,2p)
scf_convergence = 7
symmetry = false
xc_grid = 000075000302
$end
