$molecule
0    1
C 0.000000  0.000000  1.850000
H 0.000000  0.000000  2.949503
H 1.036621  0.000000  1.483499
H -0.518311  0.897740  1.483499
H -0.518311  -0.897740  1.483499
@C 0.000000  0.000000  -1.850000
@H 0.000000  0.000000  -2.949503
@H -1.036621  0.000000  -1.483499
@H 0.518311  -0.897740  -1.483499
@H 0.518311  0.897740  -1.483499
$end
   
$rem
mem_static = 200
mem_total  = 7500
exchange = b3lyp
basis = 6-311+g(3df,2p)
scf_convergence = 7
symmetry = false
xc_grid = 000075000302
$end
