#p b3lyp 6-311+g(3df,2p) scf=tight nosymm

ch3

0    1
    C      0.00000000      0.00000000      0.00000000
    H      0.53865808      0.93298316      0.00000000
    H      0.53865808     -0.93298316      0.00000000
    H     -1.07731616      0.00000000      0.00000000
 
 
 
