#p b3lyp 6-311+g(3df,2p) scf=tight nosymm

ch3cl

0    1
    C      0.00000000      0.00000000     -0.14991696
   Cl      0.00000000      0.00000000      1.63280168
    H     -0.51399776     -0.89027024     -0.49429491
    H     -0.51399776      0.89027024     -0.49429491
    H      1.02799552      0.00000000     -0.49429491
 
 
 
