#p b3lyp 6-311+g(3df,2p) scf=tight nosymm

ch3oh

0    1
    C     -0.04642302      0.66306963      0.00000000
    O     -0.04642302     -0.75506179      0.00000000
    H     -1.08695645      0.97594036      0.00000000
    H      0.86059031     -1.05704206      0.00000000
    H      0.43814497      1.07159443      0.88954160
    H      0.43814497      1.07159443     -0.88954160
 
 
 
