#p b3lyp 6-311+g(3df,2p) scf=tight nosymm

cl-

-1    1
   Cl      0.00000000      0.00000000      0.00000000
 
 
 
