#p b3lyp 6-311+g(3df,2p) scf=tight nosymm

clf

0    1
    F      0.00000000      0.00000000     -1.06598516
   Cl      0.00000000      0.00000000      0.56434633
 
 
 
