#p b3lyp 6-311+g(3df,2p) scf=tight nosymm

H2

0    1
    H      0.00000000      0.00000000      0.37093841
    H      0.00000000      0.00000000     -0.37093841
 
 
 
