#p b3lyp 6-311+g(3df,2p) scf=tight nosymm

H2O

0    1
    O      0.00000000      0.00000000      0.11714502
    H      0.00000000      0.75670753     -0.46858219
    H      0.00000000     -0.75670753     -0.46858219
 
 
 
