#p b3lyp 6-311+g(3df,2p) scf=tight nosymm

H2S

0    1
    S      0.00000000      0.00000000      0.10251909
    H      0.00000000      0.96625113     -0.82015588
    H      0.00000000     -0.96625113     -0.82015588
 
 
 
