#p b3lyp 6-311+g(3df,2p) scf=tight nosymm

hclhts

0    1
    H      0.00000000      0.00000000      1.48580260
   Cl      0.00000000      0.00000000      0.00000000
    H      0.00000000      0.00000000     -1.48580260
 
 
 
