#p b3lyp 6-311+g(3df,2p) scf=tight nosymm

hcn

0    1
    C      0.00000000      0.00000000     -0.50036510
    N      0.00000000      0.00000000      0.65263954
    H      0.00000000      0.00000000     -1.56629046
 
 
 
