#p b3lyp 6-311+g(3df,2p) scf=tight nosymm

hf

0    1
    F      0.00000000      0.00000000      0.09153813
    H      0.00000000      0.00000000     -0.82384425
 
 
 
