#p b3lyp 6-311+g(3df,2p) scf=tight nosymm

hn2

0    1
    N     -0.06244185      0.65949239      0.00000000
    N     -0.06244185     -0.51870903      0.00000000
    H      0.87419546     -0.98547613      0.00000000
 
 
 
