#p b3lyp 6-311+g(3df,2p) scf=tight nosymm

hnc

0    1
    C      0.00000000      0.00000000     -0.73925527
    N      0.00000000      0.00000000      0.43008243
    H      0.00000000      0.00000000      1.42495252
 
 
 
