#p b3lyp 6-311+g(3df,2p) scf=tight nosymm

HS

0    1
    S      0.00000000      0.00000000      0.07883523
    H      0.00000000      0.00000000     -1.26136796
 
 
 
