#p b3lyp 6-311+g(3df,2p) scf=tight nosymm

N2H

0    1
    H      0.87448651     -0.98565605      0.00000000
    N     -0.06246302     -0.51871220      0.00000000
    N     -0.06246302      0.65951885      0.00000000
 
 
 
