#p b3lyp 6-311+g(3df,2p) scf=tight nosymm

NH

0    1
    N      0.00000000      0.00000000      0.12959127
    H      0.00000000      0.00000000     -0.90714203
 
 
 
