#p b3lyp 6-311+g(3df,2p) scf=tight nosymm

NH3

0    1
    N      0.00000000      0.00000000      0.28222661
    H      0.46901223      0.81235301     -0.09407554
    H      0.46901223     -0.81235301     -0.09407554
    H     -0.93802445      0.00000000     -0.09407554
 
 
 
