#p b3lyp 6-311+g(3df,2p) scf=tight nosymm

PH2

0    1
    P      0.00000000      0.00000000      0.11565697
    H      0.00000000      1.02013195     -0.86742728
    H      0.00000000     -1.02013195     -0.86742728
 
 
 
