#p b3lyp 6-311+g(3df,2p) scf=tight nosymm

PH3

0    1
    P      0.00000000      0.00000000      0.56884910
    H      0.59567097      1.03173239     -0.18961637
    H      0.59567097     -1.03173239     -0.18961637
    H     -1.19134194      0.00000000     -0.18961637
 
 
 
