#p b3lyp 6-311+g(3df,2p) scf=tight nosymm

RKT09

0    1
    C      1.45833301     -0.44636521      0.02547803
    C      0.46942305      0.69742381     -0.02749303
    O     -1.85303571     -0.31465935     -0.05305478
    H      1.30176535     -1.06107968      0.91073515
    H      1.36658427     -1.08618914     -0.85111804
    H      2.48224858     -0.06687900      0.05715008
    H      0.47106932      1.32544603      0.86103482
    H      0.53352175      1.30349576     -0.92855783
    H     -0.63023418      0.20781583     -0.07846481
    H     -2.26720684      0.38832135      0.46575109
 
 
 
