#p b3lyp 6-311+g(3df,2p) scf=tight nosymm

RKT06

0    1
    H      0.00000000      0.00000000      0.00000000
    H      0.00000000      0.00000000      0.92947331
    H      0.00000000      0.00000000     -0.92947331
 
 
 
