#p b3lyp 6-311+g(3df,2p) scf=tight nosymm

RKT07

0    1
    N     -1.15081755     -0.04393203     -0.10255878
    O      1.17918674     -0.09269597     -0.01029001
    H     -1.30318355     -0.54764020      0.76657140
    H     -1.33891359      0.93580756      0.09185405
    H     -0.03068699     -0.15383393     -0.35318398
    H      1.29500776      0.81475298      0.29499089
 
 
 
