#p b3lyp 6-311+g(3df,2p) scf=tight nosymm

RKT17

0    1
   Cl      0.01882003     -0.81730362      0.00000000
    H     -0.47048828      0.56947935      0.00000000
    O      0.01882003      1.66557998      0.00000000
 
 
 
