$molecule
0    1
    O     -0.37313912     -1.60643931      0.00000000
    O      0.04075185     -0.85537237      1.13317392
    O      0.04075185     -0.85537237     -1.13317392
    C      0.04075185      0.43672254      0.66010895
    C      0.04075185      0.43672254     -0.66010895
    H      0.10506585      1.22186948      1.39052990
    H      0.10506585      1.22186948     -1.39052990
$end
   
$rem
mem_static = 200
mem_total  = 7500
exchange = b3lyp
basis = G3Large
max_scf_cycles = 50
scf_convergence = 7
symmetry = false
xc_grid = 000075000302
$end
