$molecule
0    1
    O     -0.54727596     -1.77446476      0.00000000
    O      0.06658200     -1.41495679      1.05535992
    O      0.06658200     -1.41495679     -1.05535992
    C      0.06658200      0.68496206      0.68688495
    C      0.06658200      0.68496206     -0.68688495
    H     -0.84890294      0.82634205      1.24239591
    H     -0.84890294      0.82634205     -1.24239591
    H      0.98937693      0.79088505      1.23708391
    H      0.98937693      0.79088505     -1.23708391
$end
   
$rem
mem_static = 200
mem_total  = 7500
exchange = b3lyp
basis = G3Large
max_scf_cycles = 50
scf_convergence = 7
symmetry = false
xc_grid = 000075000302
$end
