$molecule
0    1
    O      0.31822543      0.00000000      0.00000000
    H      1.07185324     -0.37674341      0.46025869
    C      0.07842806     -0.79529268     -1.15832504
    H     -0.77937988     -0.36158735     -1.66108973
    H      0.92775436     -0.78008256     -1.84084449
    H     -0.15967931     -1.82711046     -0.90096788
$end
   
$rem
mem_static = 200
mem_total  = 7500
exchange = b3lyp
basis = G3Large
max_scf_cycles = 50
scf_convergence = 7
symmetry = false
xc_grid = 000075000302
$end
