$molecule
0    1
    O     -1.87085539      0.00000000     -0.98117340
    H     -1.84907358     -0.37674341     -1.86396358
    C     -2.75409562     -0.79529268     -0.19434027
    H     -2.76059864     -0.36158735      0.79992554
    H     -3.76983795     -0.78008256     -0.58861870
    H     -2.41216410     -1.82711046     -0.11681181
$end
   
$rem
mem_static = 200
mem_total  = 7500
exchange = b3lyp
basis = G3Large
max_scf_cycles = 50
scf_convergence = 7
symmetry = false
xc_grid = 000075000302
$end
