$molecule
0    1
    O      0.10133809      0.00000000      0.00000000
    H      0.27888938     -0.53753511      0.77540963
    C      0.02541318     -0.87448962     -1.12303759
    H     -0.18338662     -0.25313923     -1.98734855
    H      0.96555255     -1.39971621     -1.28945362
    H     -0.78051516     -1.60062722     -1.01921345
$end
   
$rem
mem_static = 200
mem_total  = 7500
exchange = b3lyp
basis = G3Large
max_scf_cycles = 50
scf_convergence = 7
symmetry = false
xc_grid = 000075000302
$end
