$molecule
0    1
    N     -1.94630498      0.00000000     -1.00598187
    H     -2.56977526     -0.58582471     -0.46520872
    H     -1.78570646     -0.49961523     -1.87133620
    C     -2.60102542      1.27963793     -1.29238468
    H     -1.93123364      1.89705928     -1.88601529
    H     -3.54992651      1.19698549     -1.82655277
    H     -2.78358983      1.80309963     -0.35705712
$end
   
$rem
mem_static = 200
mem_total  = 7500
exchange = b3lyp
basis = G3Large
max_scf_cycles = 50
scf_convergence = 7
symmetry = false
xc_grid = 000075000302
$end
