$molecule
0    1
    N     -1.94881332      0.00000000      1.00598187
    H     -1.79222517     -0.58582471      1.81630956
    H     -2.61793289     -0.49961523      0.43422231
    C     -2.52420565      1.27963793      1.42978500
    H     -2.70340895      1.89705928      0.55291301
    H     -3.46125933      1.19698549      1.98447342
    H     -1.80547043      1.80309963      2.05555420
$end
   
$rem
mem_static = 200
mem_total  = 7500
exchange = b3lyp
basis = G3Large
max_scf_cycles = 50
scf_convergence = 7
symmetry = false
xc_grid = 000075000302
$end
