$molecule
0    1
    C     -1.49380670     -2.35920591     -0.68940344
    H     -1.99171886     -3.29181509     -0.94229763
    H     -1.35981496     -2.29694401      0.38763345
    H     -0.50061726     -2.34416882     -1.13120261
    C     -2.24768503     -1.13936998     -1.15384583
    O     -1.82978940      0.00000000     -0.95240338
    N     -3.41155778     -1.38184558     -1.80538085
    H     -3.68978741     -2.33730062     -1.93306185
    C     -4.25296990     -0.32057747     -2.31390198
    H     -3.76652265      0.61794186     -2.06938644
    H     -4.36569840     -0.39385963     -3.39380498
    H     -5.23693370     -0.34450762     -1.84973242
$end
   
$rem
mem_static = 200
mem_total  = 7500
exchange = b3lyp
basis = G3Large
max_scf_cycles = 50
scf_convergence = 7
symmetry = false
xc_grid = 000075000302
$end
