$molecule
0    1
    O      0.03354544      0.00000000      0.00000000
    H      0.15216933     -0.73493799      0.60625538
    C      0.26265762     -0.48373736     -1.32060947
    H      0.10650375      0.35524853     -1.99056217
    H      1.28303228     -0.84490649     -1.44631672
    H     -0.43603139     -1.27487535     -1.59167668
$end
   
$rem
mem_static = 200
mem_total  = 7500
exchange = b3lyp
basis = G3Large
max_scf_cycles = 50
scf_convergence = 7
symmetry = false
xc_grid = 000075000302
$end
