$molecule
0    1
    O     -1.82345846      0.00000000     -0.96837126
    H     -1.92753617     -0.57716302     -1.72850397
    C     -2.86506175     -0.30437276     -0.04483274
    H     -2.71963115      0.34413340      0.81272640
    H     -3.84958719     -0.10696706     -0.46809454
    H     -2.81915140     -1.33886286      0.29467507
$end
   
$rem
mem_static = 200
mem_total  = 7500
exchange = b3lyp
basis = G3Large
max_scf_cycles = 50
scf_convergence = 7
symmetry = false
xc_grid = 000075000302
$end
