$molecule
0    1
    O     -1.87311670      0.00000000      0.96837126
    H     -2.58344979     -0.57716302      0.67843886
    C     -1.59411053     -0.30437276      2.33219544
    H     -0.77872723      0.34413340      2.63502841
    H     -2.45292871     -0.10696706      2.97318858
    H     -1.27713296     -1.33886286      2.46218981
$end
   
$rem
mem_static = 200
mem_total  = 7500
exchange = b3lyp
basis = G3Large
max_scf_cycles = 50
scf_convergence = 7
symmetry = false
xc_grid = 000075000302
$end
