$molecule
0    1
    N     -1.90370673      0.00000000      0.98468068
    H     -1.80151247     -0.52916603      1.84129872
    H     -2.61323400     -0.48273762      0.44822841
    C     -2.36298917      1.35715254      1.29762732
    H     -2.48273540      1.91384389      0.37140549
    H     -3.30491311      1.40309833      1.84809169
    H     -1.60072199      1.86330587      1.88488560
$end
   
$rem
mem_static = 200
mem_total  = 7500
exchange = b3lyp
basis = G3Large
max_scf_cycles = 50
scf_convergence = 7
symmetry = false
xc_grid = 000075000302
$end
