$molecule
0    1
    C     -0.64804909      2.64500015     -1.11955249
    H     -0.57082943      3.72916319     -1.09381510
    H     -0.75973930      2.32406550     -2.15405053
    H      0.26348633      2.19751318     -0.73306242
    C     -1.81874941      2.12317447     -0.32631580
    O     -1.92050072      0.94055975      0.00000000
    N     -2.76599546      3.03250730      0.00000000
    H     -2.67033175      3.97080581     -0.34169115
    C     -3.96823224      2.64497888      0.70782511
    H     -3.70990792      1.89076746      1.44459538
    H     -4.38488657      3.51379173      1.20847668
    H     -4.71575808      2.22386672      0.03658396
$end
   
$rem
mem_static = 200
mem_total  = 7500
exchange = b3lyp
basis = G3Large
max_scf_cycles = 50
scf_convergence = 7
symmetry = false
xc_grid = 000075000302
$end
