$molecule
0    1
    C      0.88112385      1.95419564      1.11955249
    H      1.78142676      2.56315135      1.09381510
    H      0.65903140      1.69700175      2.15405053
    H      0.03782105      2.51986498      0.73306242
    C      1.01455972      0.67942658      0.32631580
    O      0.04126099      0.00000000      0.00000000
    N      2.27568808      0.31375386      0.00000000
    H      3.04044656      0.86575031      0.34169115
    C      2.54119700     -0.92117796     -0.70782511
    H      1.75886859     -1.07456824     -1.44459538
    H      3.50193817     -0.84760476     -1.20847668
    H      2.55026610     -1.77911040     -0.03658396
$end
   
$rem
mem_static = 200
mem_total  = 7500
exchange = b3lyp
basis = G3Large
max_scf_cycles = 50
scf_convergence = 7
symmetry = false
xc_grid = 000075000302
$end
