$molecule
0    1
    C      0.35966206      2.11231450      1.09443851
    H      0.75833499      3.08983707      0.83454562
    H      0.82170997      1.77853183      2.02221048
    H     -0.71100208      2.18054712      1.26630646
    C      0.61511181      1.07505004      0.03100370
    O      0.01618020      0.00000000      0.00000000
    N      1.55614112      1.38893235     -0.88909685
    H      2.06153408      2.24935455     -0.78633465
    C      1.93610142      0.45220450     -1.92579306
    H      1.04738991     -0.07179959     -2.26344427
    H      2.37447338      0.99629134     -2.75698987
    H      2.65001946     -0.28625225     -1.56289132
$end
   
$rem
mem_static = 200
mem_total  = 7500
exchange = b3lyp
basis = G3Large
max_scf_cycles = 50
scf_convergence = 7
symmetry = false
xc_grid = 000075000302
$end
