$molecule
0    1
    O     -1.88736804      0.99260572     -0.00000000
    H     -2.45961259      0.85229121     -0.75750704
    H     -2.46139369      0.84886631      0.75551985
$end
   
$rem
mem_static = 200
mem_total  = 7500
exchange = b3lyp
basis = G3Large
max_scf_cycles = 50
scf_convergence = 7
symmetry = false
xc_grid = 000075000302
$end
