$molecule
0    1
    O      0.05131496      0.00000000      0.00000000
    H      0.04098688     -0.40763820      0.86873087
    H      0.79735313     -0.41149480     -0.44167384
$end
   
$rem
mem_static = 200
mem_total  = 7500
exchange = b3lyp
basis = G3Large
max_scf_cycles = 50
scf_convergence = 7
symmetry = false
xc_grid = 000075000302
$end
