$molecule
0    1
    O      0.00975436      0.00000000      0.00000000
    H      0.04552396     -0.49362434     -0.82269560
    C      1.11861435      0.88848737      0.01360777
    H      1.06730680      1.43909777      0.94773931
    H      2.07080934      0.35767814     -0.01978407
    H      1.08309457      1.60434362     -0.80881821
$end
   
$rem
mem_static = 200
mem_total  = 7500
exchange = b3lyp
basis = G3Large
max_scf_cycles = 50
scf_convergence = 7
symmetry = false
xc_grid = 000075000302
$end
