$molecule
0    1
    N      1.02818268      0.00000000      0.00000000
    H      1.15307056      0.11558359     -0.99767036
    H      1.95934087     -0.10807768      0.38059276
    C      0.40847683      1.20834686      0.55230592
    H      0.32385237      1.10061918      1.63147591
    H      0.94721690      2.13652636      0.34644229
    H     -0.59936870      1.29869928      0.15382456
$end
   
$rem
mem_static = 200
mem_total  = 7500
exchange = b3lyp
basis = G3Large
max_scf_cycles = 50
scf_convergence = 7
symmetry = false
xc_grid = 000075000302
$end
