$molecule
0    1
    C     -1.05030535      1.46990294      2.58554823
    H     -0.87846087      0.70815343      3.34244506
    H     -1.18411405      2.43407846      3.07048268
    H     -0.17422576      1.50101518      1.93966718
    C     -2.23291254      1.05526269      1.74781037
    O     -2.25597565     -0.00000000      1.12063503
    N     -3.26647517      1.93491175      1.70404720
    H     -3.23803496      2.74464642      2.29501996
    C     -4.46650571      1.63566230      0.95306799
    H     -4.18483674      1.17165483      0.01242712
    H     -5.12011180      0.94645109      1.48716370
    H     -5.00455472      2.55808919      0.75501921
$end
   
$rem
mem_static = 200
mem_total  = 7500
exchange = b3lyp
basis = G3Large
max_scf_cycles = 50
scf_convergence = 7
symmetry = false
xc_grid = 000075000302
$end
