$molecule
0    1
    C     -2.83370250      1.46990294      0.65596268
    H     -3.40327213      0.70815343      1.18323277
    H     -3.32057240      2.43407846      0.78254816
    H     -1.83631330      1.50101518      1.09172933
    C     -2.69950382      1.05526269     -0.78707412
    O     -2.16788560     -0.00000000     -1.12063503
    N     -3.17838512      1.93491175     -1.70404720
    H     -3.67596243      2.74464642     -1.38393088
    C     -3.12803332      1.63566230     -3.11879374
    H     -2.17257994      1.17165483     -3.34518169
    H     -3.91737681      0.94645109     -3.41778536
    H     -3.22554255      2.55808919     -3.68378224
$end
   
$rem
mem_static = 200
mem_total  = 7500
exchange = b3lyp
basis = G3Large
max_scf_cycles = 50
scf_convergence = 7
symmetry = false
xc_grid = 000075000302
$end
