$molecule
0    1
    O     -2.64234232      0.26512447     -1.47073058
    H     -1.84045656     -0.00000000     -0.98980307
    H     -3.12271947     -0.55552674     -1.58688695
$end
   
$rem
mem_static = 200
mem_total  = 7500
exchange = b3lyp
basis = G3Large
max_scf_cycles = 50
scf_convergence = 7
symmetry = false
xc_grid = 000075000302
$end
