$molecule
0    1
    O     -2.65843221      0.26512447      1.44379274
    H     -1.84099388     -0.00000000      0.98980307
    H     -2.99921515     -0.55552674      1.80173337
$end
   
$rem
mem_static = 200
mem_total  = 7500
exchange = b3lyp
basis = G3Large
max_scf_cycles = 50
scf_convergence = 7
symmetry = false
xc_grid = 000075000302
$end
