$molecule
0    1
    O      1.04441532     -0.23785407      0.01555257
    H      0.10219105      0.00000000      0.00000000
    H      1.04466976     -1.18560736     -0.12404164
$end
   
$rem
mem_static = 200
mem_total  = 7500
exchange = b3lyp
basis = G3Large
max_scf_cycles = 50
scf_convergence = 7
symmetry = false
xc_grid = 000075000302
$end
