$molecule
0    1
    O      0.30548140      0.00000000      0.00000000
    H      1.21599162     -0.28044986     -0.11674898
    C      0.22618414      0.74975901      1.20818125
    H     -0.80973983      1.05633677      1.31598569
    H      0.50240018      0.15184042      2.07644355
    H      0.85003652      1.64295912      1.17445249
$end
   
$rem
mem_static = 200
mem_total  = 7500
exchange = b3lyp
basis = G3Large
max_scf_cycles = 50
scf_convergence = 7
symmetry = false
xc_grid = 000075000302
$end
