$molecule
0    1
    N     -1.98513425     -0.00000000     -1.03286285
    H     -2.77940474      0.43329362     -0.57879478
    H     -2.29902021     -0.92556215     -1.29672562
    C     -1.63746373      0.75870434     -2.23999962
    H     -0.79219319      0.28012362     -2.72880939
    H     -2.44632172      0.85234295     -2.96731011
    H     -1.32034763      1.75850398     -1.95282112
$end
   
$rem
mem_static = 200
mem_total  = 7500
exchange = b3lyp
basis = G3Large
max_scf_cycles = 50
scf_convergence = 7
symmetry = false
xc_grid = 000075000302
$end
