$molecule
0    1
    C     -2.81653154      1.31422723     -0.77645627
    H     -3.78278092      1.43356421     -1.26043948
    H     -2.10588281      0.89039284     -1.48095409
    H     -2.44407966      2.29479075     -0.48552113
    C     -2.87261226      0.43650137      0.44923616
    O     -1.85456522      0.00000000      0.98466511
    N     -4.11421751      0.18133011      0.92649673
    H     -4.89723659      0.58299746      0.44396336
    C     -4.34117387     -0.60601070      2.11961661
    H     -3.37510820     -0.97327734      2.44973552
    H     -4.78202132     -0.00280399      2.91096347
    H     -4.99347965     -1.45031546      1.90785278
$end
   
$rem
mem_static = 200
mem_total  = 7500
exchange = b3lyp
basis = G3Large
max_scf_cycles = 50
scf_convergence = 7
symmetry = false
xc_grid = 000075000302
$end
