$molecule
0    1
    O     -2.29145935      1.04043517     -0.00000000
    H     -2.82648003      1.26508584     -0.76416029
    H     -2.86960590      1.20660647      0.74753498
$end
   
$rem
mem_static = 200
mem_total  = 7500
exchange = b3lyp
basis = G3Large
max_scf_cycles = 50
scf_convergence = 7
symmetry = false
xc_grid = 000075000302
$end
