$molecule
0    1
    O      0.03019019      0.00000000      0.00000000
    H      0.14665215     -0.07295716      0.94961564
    H      0.90952188     -0.14516471     -0.35549666
$end
   
$rem
mem_static = 200
mem_total  = 7500
exchange = b3lyp
basis = G3Large
max_scf_cycles = 50
scf_convergence = 7
symmetry = false
xc_grid = 000075000302
$end
