$molecule
0    1
    O     -1.95102683     -0.00000000      1.04043517
    H     -2.83164908     -0.07295716      0.66648636
    H     -2.08282353     -0.14516471      1.97970708
$end
   
$rem
mem_static = 200
mem_total  = 7500
exchange = b3lyp
basis = G3Large
max_scf_cycles = 50
scf_convergence = 7
symmetry = false
xc_grid = 000075000302
$end
