$molecule
0    1
    O     -1.95472419     -0.00000000     -1.04043517
    H     -2.07118615     -0.07295716     -1.99005081
    H     -2.83405588     -0.14516471     -0.68493851
$end
   
$rem
mem_static = 200
mem_total  = 7500
exchange = b3lyp
basis = G3Large
max_scf_cycles = 50
scf_convergence = 7
symmetry = false
xc_grid = 000075000302
$end
