$molecule
0    1
    N      2.91807342     -1.04798290     -0.00138461
    H      3.72832462     -0.44350549      0.00008823
    C      3.17438384     -2.42982596     -0.00414120
    O      4.32076362     -2.84407482     -0.00464528
    C      1.96475961     -3.22982308     -0.00616272
    H      2.05385831     -4.30237018     -0.00834064
    C      0.76019694     -2.61990524     -0.00528251
    H     -0.16852113     -3.17115117     -0.00670194
    N      0.62553230     -1.25938403     -0.00252636
    H     -0.29854288     -0.81226985     -0.00193172
    C      1.70119158     -0.41073165     -0.00048698
    O      1.59481565      0.81226985      0.00193172
$end
   
$rem
mem_static = 200
mem_total  = 7500
exchange = b3lyp
basis = G3Large
max_scf_cycles = 50
scf_convergence = 7
symmetry = false
xc_grid = 000075000302
$end
