$molecule
0    1
    N     -4.53399012     -1.95035155      0.00138461
    H     -5.34424132     -1.34587414     -0.00008823
    C     -4.79030054     -3.33219461      0.00414120
    O     -5.93668032     -3.74644347      0.00464528
    C     -3.58067631     -4.13219172      0.00616272
    H     -3.66977501     -5.20473883      0.00834064
    C     -2.37611364     -3.52227389      0.00528251
    H     -1.44739557     -4.07351982      0.00670194
    N     -2.24144900     -2.16175267      0.00252636
    H     -1.31737382     -1.71463850      0.00193172
    C     -3.31710828     -1.31310029      0.00048698
    O     -3.21073235     -0.09009880     -0.00193172
$end
   
$rem
mem_static = 200
mem_total  = 7500
exchange = b3lyp
basis = G3Large
max_scf_cycles = 50
scf_convergence = 7
symmetry = false
xc_grid = 000075000302
$end
