$molecule
0    1
    N      2.23882300      0.22738870      1.24370819
    H      2.58402858      1.15600710      1.44471341
    C      3.03078970     -0.84116728      1.69776734
    O      4.07020160     -0.62672743      2.29729002
    C      2.47099120     -2.13879722      1.37223328
    H      3.00333071     -3.02310091      1.67706479
    C      1.30302693     -2.21287421      0.69892516
    H      0.84589458     -3.15462623      0.43336066
    N      0.61152740     -1.10196060      0.30287026
    H     -0.27543242     -1.17678595     -0.20852960
    C      1.04977491      0.17082356      0.55824745
    O      0.43920844      1.17678595      0.20852960
$end
   
$rem
mem_static = 200
mem_total  = 7500
exchange = b3lyp
basis = G3Large
max_scf_cycles = 50
scf_convergence = 7
symmetry = false
xc_grid = 000075000302
$end
