$molecule
0    1
    N     -1.91739153      0.00000000      0.99775995
    C     -2.54807373      1.14510731      1.29247492
    H     -2.01351179      2.05565517      1.05325501
    C     -3.81399114      1.19586784      1.86781080
    H     -4.27210086      2.15045584      2.08275340
    C     -4.46653285      0.00138295      2.15426873
    H     -5.45131447      0.00190654      2.60029531
    C     -3.82274214     -1.19377211      1.85138190
    H     -4.28783164     -2.14785420      2.05323584
    C     -2.55644243     -1.14439343      1.27673748
    H     -2.02854559     -2.05545121      1.02503653
$end
   
$rem
mem_static = 200
mem_total  = 7500
exchange = b3lyp
basis = G3Large
max_scf_cycles = 50
scf_convergence = 7
symmetry = false
xc_grid = 000075000302
$end
