$molecule
0    1
    N     -1.91797265      0.97639532      0.00000000
    C     -2.52916803      1.31231203     -1.14433787
    H     -2.01901450      1.02714634     -2.05563075
    C     -3.74647080      1.98448233     -1.19226314
    H     -4.19210260      2.22871383     -2.14576729
    C     -4.36756892      2.32886747      0.00373761
    H     -5.31430449      2.85063606      0.00517841
    C     -3.74242914      1.98527561      1.19788703
    H     -4.18479200      2.23009693      2.15264911
    C     -2.52528964      1.31309426      1.14617306
    H     -2.01195817      1.02850801      2.05597216
$end
   
$rem
mem_static = 200
mem_total  = 7500
exchange = b3lyp
basis = G3Large
max_scf_cycles = 50
scf_convergence = 7
symmetry = false
xc_grid = 000075000302
$end
