$molecule
0    1
    N      0.07125438     -0.00000000      0.00000000
    C      1.24727605     -0.01468529      0.64239112
    H      1.19682698     -0.00656926      1.72378829
    C      2.47527404     -0.04122012     -0.01125451
    H      3.39200532     -0.05252533      0.56048220
    C      2.49222040     -0.05352290     -1.40206120
    H      3.42748410     -0.07502583     -1.94369964
    C      1.27751122     -0.03851229     -2.07963351
    H      1.23791307     -0.04767223     -3.15923579
    C      0.09945051     -0.01206866     -1.33976570
    H     -0.86367710     -0.00186185     -1.83424922
$end
   
$rem
mem_static = 200
mem_total  = 7500
exchange = b3lyp
basis = G3Large
max_scf_cycles = 50
scf_convergence = 7
symmetry = false
xc_grid = 000075000302
$end
