$molecule
0    1
    N      0.01387310     -0.00000000     -0.00000000
    C      0.62506848      0.33591671      1.14433787
    H      0.11491495      0.05075102      2.05563075
    C      1.84237125      1.00808701      1.19226314
    H      2.28800305      1.25231851      2.14576729
    C      2.46346937      1.35247215     -0.00373761
    H      3.41020494      1.87424074     -0.00517841
    C      1.83832960      1.00888029     -1.19788703
    H      2.28069245      1.25370161     -2.15264911
    C      0.62119009      0.33669894     -1.14617306
    H      0.10785862      0.05211269     -2.05597216
$end
   
$rem
mem_static = 200
mem_total  = 7500
exchange = b3lyp
basis = G3Large
max_scf_cycles = 50
scf_convergence = 7
symmetry = false
xc_grid = 000075000302
$end
