$molecule
0    1
    C     -2.53273018     -0.10592628     -1.38777690
    O     -1.91792294     -1.10402313     -1.03318879
    O     -2.13014407      1.13332188     -1.15530668
    H     -1.26926131      1.10402313     -0.65838839
    C     -3.82902675     -0.16013364     -2.13539700
    H     -4.11473433     -1.19126938     -2.30317276
    H     -4.59652934      0.35645545     -1.56413278
    H     -3.72083132      0.36128970     -3.08341802
$end
   
$rem
mem_static = 200
mem_total  = 7500
exchange = b3lyp
basis = G3Large
max_scf_cycles = 50
scf_convergence = 7
symmetry = false
xc_grid = 000075000302
$end
