$molecule
0    1
    C     -3.12297854      1.29620953      0.00019338
    O     -3.00738038      0.07696593     -0.00012793
    O     -2.10075233      2.13698745      0.00022544
    H     -1.25456770      1.61461125      0.00012793
    C     -4.44603366      1.99748248      0.00088367
    H     -5.24853124      1.27015168     -0.00156061
    H     -4.51600139      2.63438407      0.87936429
    H     -4.51468056      2.63920360     -0.87422434
$end
   
$rem
mem_static = 200
mem_total  = 7500
exchange = b3lyp
basis = G3Large
max_scf_cycles = 50
scf_convergence = 7
symmetry = false
xc_grid = 000075000302
$end
