$molecule
0    1
    C     -3.07229948     -1.47967922      0.00019338
    O     -1.95860447     -1.98919007     -0.00012793
    O     -3.28932142     -0.17401638      0.00022544
    H     -2.41383805      0.29761290      0.00012793
    C     -4.34114724     -2.27484208      0.00088367
    H     -4.11250908     -3.33349078     -0.00156061
    H     -4.92770406     -2.01698512      0.87936429
    H     -4.93121747     -2.01343148     -0.87422434
$end
   
$rem
mem_static = 200
mem_total  = 7500
exchange = b3lyp
basis = G3Large
max_scf_cycles = 50
scf_convergence = 7
symmetry = false
xc_grid = 000075000302
$end
