$molecule
0    1
    C     -2.53254589     -0.10592628      1.38811184
    O     -1.91805996     -1.10402313      1.03296721
    O     -2.12992773      1.13332188      1.15569716
    H     -1.26914248      1.10402313      0.65860997
    C     -3.82815218     -0.16013364      2.13692756
    H     -4.11630404     -1.19126938      2.30046970
    H     -3.71717415      0.35645545      3.08723641
    H     -4.59506475      0.36128970      1.56921705
$end
   
$rem
mem_static = 200
mem_total  = 7500
exchange = b3lyp
basis = G3Large
max_scf_cycles = 50
scf_convergence = 7
symmetry = false
xc_grid = 000075000302
$end
