$molecule
0    1
    C      1.65692358      0.45042094     -0.00019338
    O      1.54132542     -0.76882266      0.00012793
    O      0.63469737      1.29119886     -0.00022544
    H     -0.21148726      0.76882266     -0.00012793
    C      2.97997869      1.15169389     -0.00088367
    H      3.78247628      0.42436309      0.00156061
    H      3.04994643      1.78859548     -0.87936429
    H      3.04862559      1.79341501      0.87422434
$end
   
$rem
mem_static = 200
mem_total  = 7500
exchange = b3lyp
basis = G3Large
max_scf_cycles = 50
scf_convergence = 7
symmetry = false
xc_grid = 000075000302
$end
