$molecule
0    1
    C      1.51519871     -0.63389063     -0.00019338
    O      0.40150370     -1.14340149      0.00012793
    O      1.73222064      0.67177220     -0.00022544
    H      0.85673727      1.14340149     -0.00012793
    C      2.78404646     -1.42905349     -0.00088367
    H      2.55540830     -2.48770219      0.00156061
    H      3.37060328     -1.17119653     -0.87936429
    H      3.37411670     -1.16764289      0.87422434
$end
   
$rem
mem_static = 200
mem_total  = 7500
exchange = b3lyp
basis = G3Large
max_scf_cycles = 50
scf_convergence = 7
symmetry = false
xc_grid = 000075000302
$end
