$molecule
0    1
    C      1.67814804      0.46461035     -0.00037588
    O      1.65890145     -0.76828701     -0.00067007
    N      0.56181753      1.21574241      0.00159522
    H     -0.35663174      0.76828701      0.00067007
    H      0.62744746      2.21489061      0.00079600
    C      2.99041289      1.21082537     -0.00524116
    H      2.87333421      2.29093345      0.02395096
    H      3.54145999      0.93321101     -0.90044680
    H      3.57406950      0.88785667      0.85290947
$end
   
$rem
mem_static = 200
mem_total  = 7500
exchange = b3lyp
basis = G3Large
max_scf_cycles = 50
scf_convergence = 7
symmetry = false
xc_grid = 000075000302
$end
