$molecule
0    1
    C      1.06637153     -0.11114223      0.56053682
    O      0.51822347     -1.16923936      0.24372369
    N      0.55338783      1.09752247      0.26664157
    H     -0.32874042      1.16923936     -0.24372369
    H      1.03565374      1.92999523      0.54415506
    C      2.37612340     -0.12103350      1.31110447
    H      2.74141884      0.87290689      1.55571605
    H      3.11680099     -0.63697813      0.70504045
    H      2.24494099     -0.69256089      2.22627326
$end
   
$rem
mem_static = 200
mem_total  = 7500
exchange = b3lyp
basis = G3Large
max_scf_cycles = 50
scf_convergence = 7
symmetry = false
xc_grid = 000075000302
$end
