$molecule
0    1
    N      2.74139008     -1.27448890     -0.02944800
    H      2.70713216     -2.28436569     -0.04718496
    C      4.02338256     -0.69913631     -0.02511881
    O      5.01611437     -1.40707059     -0.04178780
    C      3.99135998      0.74960533      0.00000000
    H      4.92288462      1.28854753      0.00513188
    C      2.80245085      1.39015534      0.01617063
    H      2.72508150      2.46738149      0.03499534
    N      1.60684326      0.72837228      0.01003286
    H      0.71640815      1.25157057      0.02133889
    C      1.52292438     -0.63818468     -0.01398682
    O      0.45879815     -1.25157057     -0.02133889
$end
   
$rem
mem_static = 200
mem_total  = 7500
exchange = b3lyp
basis = G3Large
max_scf_cycles = 50
scf_convergence = 7
symmetry = false
xc_grid = 000075000302
$end
