$molecule
0    1
    N      2.86843117      1.22798974     -0.02944800
    H      3.72588116      0.69338312     -0.04718496
    C      3.01115746      2.62590409     -0.02511881
    O      4.12061243      3.13166792     -0.04178780
    C      1.74049910      3.32254255      0.00000000
    H      1.73952378      4.39873765      0.00513188
    C      0.59131195      2.61319204      0.01617063
    H     -0.38027794      3.08480129      0.03499534
    N      0.56662911      1.24687397      0.01003286
    H     -0.33169146      0.73733368      0.02133889
    C      1.70814270      0.49091960     -0.01398682
    O      1.70728735     -0.73733368     -0.02133889
$end
   
$rem
mem_static = 200
mem_total  = 7500
exchange = b3lyp
basis = G3Large
max_scf_cycles = 50
scf_convergence = 7
symmetry = false
xc_grid = 000075000302
$end
