$molecule
0    1
    N     -4.44815574      0.99346872      0.68412761
    C     -4.47901219      1.11267902     -0.65101849
    H     -5.25031422      0.54659876     -1.15936979
    C     -3.59693490      1.90724791     -1.37797871
    H     -3.67907064      1.96143495     -2.45456891
    C     -2.61800120      2.61989749     -0.69233591
    H     -1.91052996      3.24284693     -1.22188620
    C     -2.56931584      2.50637188      0.69233591
    H     -1.82239380      3.02964414      1.27198911
    C     -3.50186326      1.68926559      1.32830226
    H     -3.48779009      1.58448208      2.40646446
$end
   
$rem
mem_static = 200
mem_total  = 7500
exchange = b3lyp
basis = G3Large
max_scf_cycles = 50
scf_convergence = 7
symmetry = false
xc_grid = 000075000302
$end
