$molecule
0    1
    N      0.11264552     -1.19123929     -0.68412761
    C      0.23131290     -1.15835661      0.65101849
    H      0.12672403     -2.10936390      1.15936979
    C      0.47839110      0.00282917      1.37797871
    H      0.56638632     -0.04120895      2.45456891
    C      0.60609689      1.20693541      0.69233591
    H      0.79185131      2.13109820      1.22188620
    C      0.48343814      1.19233537     -0.69233591
    H      0.56314419      2.10082495     -1.27198911
    C      0.24207705     -0.02382754     -1.32830226
    H      0.14429528     -0.06403156     -2.40646446
$end
   
$rem
mem_static = 200
mem_total  = 7500
exchange = b3lyp
basis = G3Large
max_scf_cycles = 50
scf_convergence = 7
symmetry = false
xc_grid = 000075000302
$end
