$molecule
0    1
    N     -0.08093342      0.77547526     -0.03733121
    H     -0.77147982      1.51677881     -0.04280082
    C      0.27044894      0.24321006     -1.28441575
    O     -0.20788725      0.69869505     -2.31221174
    N      1.12823073     -0.76684319      1.17502397
    H      1.55604982     -1.31789896     -2.10700220
    C      1.57333629     -1.33399392      0.01299957
    H      2.23432504     -2.17932287      0.13219378
    C      1.20216131     -0.86584935     -1.19666202
    H      1.31793564     -1.19907868      2.06489587
    C      0.24292418      0.29395914      1.21640472
    O     -0.20799498      0.74221769      2.25286238
$end
   
$rem
mem_static = 200
mem_total  = 7500
exchange = b3lyp
basis = G3Large
max_scf_cycles = 50
scf_convergence = 7
symmetry = false
xc_grid = 000075000302
$end
