$molecule
0    1
    N      1.44183067     -0.74813983     -0.90356288
    C      1.72651141     -0.73097355      0.40616137
    H      2.57505146     -1.32986133      0.71440792
    C      1.00521616      0.00034388      1.34605225
    H      1.28947467     -0.02887485      2.38860644
    C     -0.07820037      0.75866248      0.91452586
    H     -0.66698956      1.33492752      1.61478436
    C     -0.38929321      0.75110069     -0.44021827
    H     -1.22605963      1.31519833     -0.82642319
    C      0.39539999     -0.01192645     -1.30120993
    H      0.17373600     -0.03704289     -2.36119114
$end
   
$rem
mem_static = 200
mem_total  = 7500
exchange = b3lyp
basis = G3Large
max_scf_cycles = 50
scf_convergence = 7
symmetry = false
xc_grid = 000075000302
$end
