$molecule
0    1
    N      0.08436655     -1.02821038     -0.90356288
    C      0.24157335     -1.26616800      0.40616137
    H      0.14719134     -2.30046913      0.71440792
    C      0.51426520     -0.27584928      1.34605225
    H      0.63109029     -0.53663373      2.38860644
    C      0.62928010      1.04157626      0.91452586
    H      0.83394568      1.83961518      1.61478436
    C      0.46718499      1.30720967     -0.44021827
    H      0.53732466      2.31391947     -0.82642319
    C      0.19873070      0.24613186     -1.30120993
    H      0.06614722      0.42554029     -2.36119114
$end
   
$rem
mem_static = 200
mem_total  = 7500
exchange = b3lyp
basis = G3Large
max_scf_cycles = 50
scf_convergence = 7
symmetry = false
xc_grid = 000075000302
$end
