$molecule
0    1
    N     -4.39782465      1.09190759      0.90356288
    C     -4.68250539      1.10907387     -0.40616137
    H     -5.53104544      0.51018609     -0.71440792
    C     -3.96121014      1.84039130     -1.34605225
    H     -4.24546865      1.81117257     -2.38860644
    C     -2.87779361      2.59870990     -0.91452586
    H     -2.28900442      3.17497494     -1.61478436
    C     -2.56670077      2.59114811      0.44021827
    H     -1.72993435      3.15524575      0.82642319
    C     -3.35139397      1.82812098      1.30120993
    H     -3.12972998      1.80300453      2.36119114
$end
   
$rem
mem_static = 200
mem_total  = 7500
exchange = b3lyp
basis = G3Large
max_scf_cycles = 50
scf_convergence = 7
symmetry = false
xc_grid = 000075000302
$end
