$molecule
0    1
    N     -3.61934622     -2.86825780      0.90356288
    C     -3.77655302     -3.10621542     -0.40616137
    H     -3.68217102     -4.14051655     -0.71440792
    C     -4.04924487     -2.11589670     -1.34605225
    H     -4.16606997     -2.37668115     -2.38860644
    C     -4.16425977     -0.79847116     -0.91452586
    H     -4.36892535     -0.00043224     -1.61478436
    C     -4.00216466     -0.53283775      0.44021827
    H     -4.07230434      0.47387205      0.82642319
    C     -3.73371037     -1.59391557      1.30120993
    H     -3.60112690     -1.41450714      2.36119114
$end
   
$rem
mem_static = 200
mem_total  = 7500
exchange = b3lyp
basis = G3Large
max_scf_cycles = 50
scf_convergence = 7
symmetry = false
xc_grid = 000075000302
$end
