$molecule
0    1
    N      0.66102238      0.89489490     -0.13440392
    H      0.31939098      1.83432948     -0.28405506
    C      1.46797449      0.36644005     -1.14948557
    O      1.76985928      1.04236767     -2.11860882
    C      1.87556324     -1.00627939     -0.90491348
    H      2.50970411     -1.49406118     -1.62494929
    C      1.46123641     -1.63848157      0.21197586
    H      1.73778559     -2.65741511      0.43944570
    N      0.65402147     -1.02574856      1.13165893
    H      0.35229784     -1.50484861      1.96326641
    C      0.20579706      0.27970390      1.01055454
    O     -0.50601283      0.81332470      1.83893617
$end
   
$rem
mem_static = 200
mem_total  = 7500
exchange = b3lyp
basis = G3Large
max_scf_cycles = 50
scf_convergence = 7
symmetry = false
xc_grid = 000075000302
$end
