$molecule
0    1
    C      0.12207987      0.66502748     -0.03299844
    H     -0.35840504      1.17382684     -0.85628897
    H      0.56297077      1.27836776      0.73964853
    C      0.15981865     -0.66502745      0.03235447
    H     -0.28886463     -1.27836582     -0.73579395
    H      0.63257292     -1.17382912      0.86010805
$end
   
$rem
mem_static = 200
mem_total  = 7500
exchange = b3lyp
basis = G3Large
max_scf_cycles = 50
scf_convergence = 7
symmetry = false
xc_grid = 000075000302
$end
