$molecule
0    1
    C     -3.75675970      0.66502748     -1.68553711
    H     -4.22950776      1.17382684     -0.85777970
    H     -3.30807324      1.27836776     -2.45368332
    C     -3.71903181     -0.66502745     -1.75089630
    H     -4.15992621     -1.27836582     -0.97825098
    H     -3.23855331     -1.17382912     -2.57419030
$end
   
$rem
mem_static = 200
mem_total  = 7500
exchange = b3lyp
basis = G3Large
max_scf_cycles = 50
scf_convergence = 7
symmetry = false
xc_grid = 000075000302
$end
