$molecule
0    1
    C     -3.34362658      1.71829814     -0.66460857
    H     -2.58103134      2.25374348     -1.21240175
    H     -4.14344482      1.27285267     -1.23957896
    C     -3.30870413      1.61609214      0.66449829
    H     -2.51723516      2.06750859      1.24611492
    H     -4.07727006      1.08412782      1.20717983
$end
   
$rem
mem_static = 200
mem_total  = 7500
exchange = b3lyp
basis = G3Large
max_scf_cycles = 50
scf_convergence = 7
symmetry = false
xc_grid = 000075000302
$end
