$molecule
0    1
    C     -3.61760613     -1.65682933     -0.66460857
    H     -3.70001778     -0.72867982     -1.21240175
    H     -3.63174816     -2.57221499     -1.23957896
    C     -3.51163192     -1.67768861      0.66449829
    H     -3.50683554     -0.76654815      1.24611492
    H     -3.43522027     -2.60926839      1.20717983
$end
   
$rem
mem_static = 200
mem_total  = 7500
exchange = b3lyp
basis = G3Large
max_scf_cycles = 50
scf_convergence = 7
symmetry = false
xc_grid = 000075000302
$end
