$molecule
0    1
    C      0.04624140      0.03548903      0.59559689
    H     -0.56774698      0.88049592      0.87364761
    H      0.16573634     -0.75018719      1.32850595
    C      0.64034650     -0.03556274     -0.59611678
    H      0.53302214      0.75110986     -1.32967356
    H      1.25776441     -0.88054032     -0.86628504
$end
   
$rem
mem_static = 200
mem_total  = 7500
exchange = b3lyp
basis = G3Large
max_scf_cycles = 50
scf_convergence = 7
symmetry = false
xc_grid = 000075000302
$end
