$molecule
0    1
    C      0.08068997      0.51302426      0.00658222
    H     -0.50485686      1.40020942      0.00000000
    C      0.72794923     -0.51248866     -0.00452960
    H      1.30073930     -1.40659166     -0.02445919
$end
   
$rem
mem_static = 200
mem_total  = 7500
exchange = b3lyp
basis = G3Large
max_scf_cycles = 50
scf_convergence = 7
symmetry = false
xc_grid = 000075000302
$end
