$molecule
0    1
    C     -3.63418025     -1.69428903      0.66634423
    H     -3.04760670     -2.40848312      1.22595391
    H     -4.21853702     -0.97974050      1.22862471
    C     -3.63399552     -1.69476323     -0.66634302
    H     -3.04726983     -2.40933682     -1.22530151
    H     -4.21822169     -0.98060474     -1.22929151
$end
   
$rem
mem_static = 200
mem_total  = 7500
exchange = b3lyp
basis = G3Large
max_scf_cycles = 50
scf_convergence = 7
symmetry = false
xc_grid = 000075000302
$end
