$molecule
0    1
    C     -3.58727434      1.69487469      0.66634423
    H     -3.91249780      0.82979006      1.22595391
    H     -3.26063555      2.55821676      1.22862471
    C     -3.58759265      1.69447761     -0.66634302
    H     -3.91306869      0.82907147     -1.22530151
    H     -3.26122634      2.55751156     -1.22929151
$end
   
$rem
mem_static = 200
mem_total  = 7500
exchange = b3lyp
basis = G3Large
max_scf_cycles = 50
scf_convergence = 7
symmetry = false
xc_grid = 000075000302
$end
