$molecule
0    1
    C      0.70361004      0.00033813     -0.57701748
    H      0.85273984     -0.91145887     -1.13709895
    H      1.11360927      0.91133369     -0.98956988
    C      0.03733321     -0.00016490      0.57716210
    H     -0.37277086     -0.91236663      0.98581807
    H     -0.11521110      0.91042758      1.13912751
$end
   
$rem
mem_static = 200
mem_total  = 7500
exchange = b3lyp
basis = G3Large
max_scf_cycles = 50
scf_convergence = 7
symmetry = false
xc_grid = 000075000302
$end
