$molecule
0    1
    C      0.50181978     -0.30008577      2.53343267
    H     -0.00550819     -1.26407555      2.56777141
    H      1.57483297     -0.48929273      2.56364616
    H      0.23357032      0.24984519      3.43436852
    C      0.12516276      0.46560594      1.27196217
    H      0.62523431      1.43691214      1.26676836
    H     -0.94760375      0.67336692      1.27112817
    C      0.48815415     -0.28837837     -0.00016168
    H      1.56182343     -0.49901633     -0.00061435
    H     -0.01463102     -1.26008994     -0.00033426
    C      0.12431589      0.46640137     -1.27157341
    H      0.62398933      1.43791899     -1.26594112
    H     -0.94853816      0.67373542     -1.27017070
    C      0.50081574     -0.29835524     -2.53364820
    H     -0.00578265     -1.26274045     -2.56808754
    H      0.23168156      0.25172046     -3.43419493
    H      1.57396973     -0.48674747     -2.56447729
$end
   
$rem
mem_static = 200
mem_total  = 7500
exchange = b3lyp
basis = G3Large
max_scf_cycles = 50
scf_convergence = 7
symmetry = false
xc_grid = 000075000302
$end
