$molecule
0    1
    C     -5.11539659      0.00013603      2.28046781
    C     -6.42746731      0.18339200      3.03817078
    H     -6.37229688     -0.27474514      4.02664188
    H     -6.65597803      1.24211251      3.16845216
    H     -7.25566605     -0.27723383      2.49772755
    C     -3.97970706      0.65600362      3.06168834
    H     -3.02980339      0.53603413      2.53924768
    H     -4.16263229      1.72392128      3.19037235
    H     -3.87911186      0.20838131      4.05163428
    C     -5.22656872      0.65038327      0.90385349
    H     -4.29883235      0.53141164      0.34268860
    H     -5.43305236      1.71795143      0.99392329
    H     -6.03213494      0.19783203      0.32368205
    C     -4.82588952     -1.48976746      2.11705673
    H     -5.62449028     -1.98229457      1.56028808
    H     -3.89118338     -1.64695952      1.57677237
    H     -4.74021286     -1.97816848      3.08889503
$end
   
$rem
mem_static = 200
mem_total  = 7500
exchange = b3lyp
basis = G3Large
max_scf_cycles = 50
scf_convergence = 7
symmetry = false
xc_grid = 000075000302
$end
