$molecule
0    1
    C     -4.45141210      2.28059011     -0.00000519
    C     -5.67193217      3.19686347      0.00014947
    H     -6.28764346      3.02333334      0.88377577
    H     -5.37036845      4.24526071     -0.00127890
    H     -6.28937536      3.02145956     -0.88198746
    C     -3.60998957      2.55212525      1.24439640
    H     -2.73132312      1.90629810      1.26690135
    H     -3.26894648      3.58834901      1.26437740
    H     -4.18701349      2.36840044      2.15201233
    C     -3.61357609      2.54770610     -1.24777423
    H     -2.73426810      1.90266079     -1.26988909
    H     -3.27365611      3.58417474     -1.27301331
    H     -4.19280478      2.35956278     -2.15300054
    C     -4.90847447      0.82408283      0.00323020
    H     -5.51260069      0.60415395     -0.87824597
    H     -4.05209091      0.14813978      0.00268328
    H     -5.50923582      0.60697563      0.88770518
$end
   
$rem
mem_static = 200
mem_total  = 7500
exchange = b3lyp
basis = G3Large
max_scf_cycles = 50
scf_convergence = 7
symmetry = false
xc_grid = 000075000302
$end
