$molecule
0    1
    C      0.42300376      0.00013603     -0.00025731
    C      1.73507448      0.18339200     -0.75796029
    H      1.67990404     -0.27474514     -1.74643139
    H      1.96358520      1.24211251     -0.88824167
    H      2.56327322     -0.27723383     -0.21751706
    C     -0.71268577      0.65600362     -0.78147784
    H     -1.66258944      0.53603413     -0.25903719
    H     -0.52976054      1.72392128     -0.91016185
    H     -0.81328097      0.20838131     -1.77142379
    C      0.53417588      0.65038327      1.37635701
    H     -0.39356049      0.53141164      1.93752189
    H      0.74065953      1.71795143      1.28628720
    H      1.33974211      0.19783203      1.95652844
    C      0.13349669     -1.48976746      0.16315377
    H      0.93209744     -1.98229457      0.71992241
    H     -0.80120945     -1.64695952      0.70343813
    H      0.04782003     -1.97816848     -0.80868453
$end
   
$rem
mem_static = 200
mem_total  = 7500
exchange = b3lyp
basis = G3Large
max_scf_cycles = 50
scf_convergence = 7
symmetry = false
xc_grid = 000075000302
$end
