$molecule
0    1
    C      0.43104588     -0.00014401      0.00000519
    C      1.83482192     -0.59900871     -0.00014947
    H      1.99239606     -1.21899539     -0.88377577
    H      2.59197870      0.18635176      0.00127890
    H      1.99163927     -1.22143215      0.88198746
    C      0.24549094      0.86431685     -1.24439640
    H     -0.75314500      1.30235074     -1.26690135
    H      0.97236550      1.67778072     -1.26437740
    H      0.37489255      0.27273707     -2.15201233
    C      0.24345711      0.85900126      1.24777423
    H     -0.75482251      1.29798166      1.26988909
    H      0.97110529      1.67161491      1.27301331
    H      0.37013456      0.26330284      2.15300054
    C     -0.60179524     -1.12422527     -0.00323020
    H     -0.49019613     -1.75737836      0.87824597
    H     -1.61537087     -0.72054687     -0.00268328
    H     -0.48943492     -1.75305346     -0.88770518
$end
   
$rem
mem_static = 200
mem_total  = 7500
exchange = b3lyp
basis = G3Large
max_scf_cycles = 50
scf_convergence = 7
symmetry = false
xc_grid = 000075000302
$end
