$molecule
0    1
    C      0.40399660     -0.00026376     -0.00001192
    C      0.68407683     -1.50091707      0.00152879
    H     -0.24564432     -2.07168522      0.00259771
    H      1.25593836     -1.79024630     -0.88137220
    H      1.25680728     -1.78822361      0.88453106
    C     -0.39475446      0.36794366     -1.24771694
    H     -0.60810741      1.43761857     -1.27080326
    H      0.15931015      0.11405103     -2.15260129
    H     -1.34580112     -0.16587506     -1.27413297
    C      1.72579223      0.76305647      0.00052255
    H      1.55220310      1.84003832     -0.00206175
    H      2.31841171      0.51396598     -0.88084553
    H      2.31558625      0.51776979      0.88484474
    C     -0.39694303      0.37007613      1.24568065
    H      0.15427999      0.11508358      2.15200105
    H     -0.60783932      1.44025664      1.26795227
    H     -1.34930544     -0.16150780      1.26985290
$end
   
$rem
mem_static = 200
mem_total  = 7500
exchange = b3lyp
basis = G3Large
max_scf_cycles = 50
scf_convergence = 7
symmetry = false
xc_grid = 000075000302
$end
