$molecule
0    1
    C      0.99467931     -0.61749216     -1.04654323
    H      0.10976462     -1.03609552     -1.53030880
    H      1.86051669     -0.89777411     -1.64440915
    C      0.84385787      0.90384861     -0.89321379
    H      0.28972535      1.34643361     -1.71926670
    H      1.82767426      1.37202465     -0.88261128
    C      0.13900477      1.11578682      0.47168958
    H     -0.81569738      1.62800266      0.36553238
    H      0.75817644      1.73063352      1.12357926
    C     -0.03305138     -0.29059667      1.07385684
    H     -1.00861836     -0.69756230      0.80205066
    H      0.03268732     -0.29396256      2.16058008
    C      1.05744108     -1.11836452      0.39499112
    H      0.90445224     -2.19268514      0.48780379
    H      2.03145319     -0.87777191      0.82774899
$end
   
$rem
mem_static = 200
mem_total  = 7500
exchange = b3lyp
basis = G3Large
max_scf_cycles = 50
scf_convergence = 7
symmetry = false
xc_grid = 000075000302
$end
