$molecule
0    1
    C      0.70617640      1.26060056     -0.09912133
    H     -0.29180113      1.64934932     -0.31043709
    H      1.39631481      2.10285696     -0.06398498
    C      0.68673715      0.45009500      1.19963228
    H      0.08442854      0.91889300      1.97614653
    H      1.70342440      0.35827074      1.58450251
    C      0.14991865     -0.94254813      0.79274324
    H     -0.86573962     -1.09448509      1.15465180
    H      0.76292083     -1.73417121      1.22104515
    C      0.19229500     -0.97567142     -0.75203302
    H     -0.80982269     -0.81766982     -1.15210603
    H      0.55614865     -1.92506460     -1.14155879
    C      1.07482675      0.21191313     -1.14572558
    H      0.90946573      0.54283065     -2.17032204
    H      2.13010338     -0.05311117     -1.04426206
$end
   
$rem
mem_static = 200
mem_total  = 7500
exchange = b3lyp
basis = G3Large
max_scf_cycles = 50
scf_convergence = 7
symmetry = false
xc_grid = 000075000302
$end
