$molecule
0    1
    C      0.18971962      1.16412443     -0.33828082
    H     -0.62143880      1.00180197     -1.05060977
    H      0.32504753      2.23860908     -0.21957725
    C     -0.12327742      0.45248640      0.98068175
    H     -1.16626149      0.55732308      1.27515604
    H      0.48656398      0.88130789      1.77718371
    C      0.28058539     -1.02198717      0.74401706
    H     -0.59632196     -1.66139757      0.65563038
    H      0.86896892     -1.40105178      1.57828089
    C      1.09909858     -1.02948461     -0.56716810
    H      0.47913012     -1.39371006     -1.38707158
    H      1.97785102     -1.66975640     -0.50960576
    C      1.44360449      0.44025965     -0.82286454
    H      1.68859046      0.64416212     -1.86452390
    H      2.29908908      0.73838019     -0.21179030
$end
   
$rem
mem_static = 200
mem_total  = 7500
exchange = b3lyp
basis = G3Large
max_scf_cycles = 50
scf_convergence = 7
symmetry = false
xc_grid = 000075000302
$end
