$molecule
0    1
    C     -3.68564633     -3.40510958      0.00292919
    C     -2.87868781     -3.76595617     -1.24173856
    H     -2.65070624     -4.83300060     -1.26169313
    H     -3.43485638     -3.52199262     -2.14836479
    H     -1.93815950     -3.21389592     -1.26326049
    C     -4.99764610     -4.18473330      0.00342923
    H     -5.59252616     -3.94253926      0.88536073
    H     -5.59118023     -3.94594458     -0.88034824
    H     -4.81195586     -5.25995690      0.00565987
    C     -3.97879586     -1.90691899      0.00017438
    H     -4.55624374     -1.62438781      0.88223988
    H     -4.55480206     -1.62732429     -0.88375609
    H     -3.05417249     -1.32839913     -0.00000000
    C     -2.88042831     -3.76157377      1.24999002
    H     -1.94000965     -3.20927609      1.27094451
    H     -3.43792350     -3.51461906      2.15499903
    H     -2.65223080     -4.82848343      1.27386895
$end
   
$rem
mem_static = 200
mem_total  = 7500
exchange = b3lyp
basis = G3Large
max_scf_cycles = 50
scf_convergence = 7
symmetry = false
xc_grid = 000075000302
$end
