$molecule
0    1
    C      1.74057368     -1.48274708     -0.79515056
    C      1.91393983     -2.19872865      0.54197497
    H      2.21497473     -3.23680702      0.39121395
    H      2.67874006     -1.70936573      1.14729915
    H      0.98025547     -2.19089461      1.10588928
    C      3.06191047     -1.50192114     -1.55860210
    H      2.96223168     -0.99473492     -2.51941930
    H      3.84555125     -0.99835698     -0.99053900
    H      3.38711295     -2.52593721     -1.74893356
    C      1.31307769     -0.03870121     -0.54515465
    H      1.18279126      0.49470191     -1.48845526
    H      2.06597952      0.49143801      0.04083227
    H      0.36919090      0.00000000      0.00000000
    C      0.66748328     -2.19406313     -1.61558333
    H     -0.28745987     -2.18596864     -1.08844281
    H      0.52616564     -1.70144649     -2.57900795
    H      0.94638112     -3.23213276     -1.80417809
$end
   
$rem
mem_static = 200
mem_total  = 7500
exchange = b3lyp
basis = G3Large
max_scf_cycles = 50
scf_convergence = 7
symmetry = false
xc_grid = 000075000302
$end
