$molecule
0    1
    C     -4.93377935      0.83691630      0.00292919
    C     -4.84280241     -0.04235357     -1.24173856
    H     -5.65289920     -0.77331362     -1.26169313
    H     -4.90960806      0.56128432     -2.14836479
    H     -3.89444005     -0.58084486     -1.26326049
    C     -6.26495318      1.58332957      0.00342923
    H     -6.35264702      2.21960784      0.88536073
    H     -6.35492315      2.21673957     -0.88034824
    H     -7.10327901      0.88490531      0.00565987
    C     -3.78288300      1.83988653      0.00017438
    H     -3.82692777      2.48123666      0.88223988
    H     -3.82875000      2.47851989     -0.88375609
    H     -2.81955843      1.32839913     -0.00000000
    C     -4.83987738     -0.03865505      1.24999002
    H     -3.89136423     -0.57693266      1.27094451
    H     -4.90475593      0.56762729      2.15499903
    H     -5.64974950     -0.76973472      1.27386895
$end
   
$rem
mem_static = 200
mem_total  = 7500
exchange = b3lyp
basis = G3Large
max_scf_cycles = 50
scf_convergence = 7
symmetry = false
xc_grid = 000075000302
$end
