$molecule
0    1
    C     -4.27358052     -1.48274708     -2.11847618
    C     -3.20227891     -2.19872865     -2.93717844
    H     -3.48335924     -3.23680702     -3.12250179
    H     -3.06045291     -1.70936573     -3.90217695
    H     -2.24707261     -2.19089461     -2.41054121
    C     -5.59541734     -1.50192114     -2.88106164
    H     -6.37767004     -0.99473492     -2.31432867
    H     -5.49528066     -0.99835698     -3.84374601
    H     -5.92285046     -2.52593721     -3.06752951
    C     -3.84332970     -0.03870121     -1.87325174
    H     -4.59510878      0.49470191     -1.28877008
    H     -3.71230107      0.49143801     -2.81827732
    H     -2.89926854     -0.00000000     -1.32839913
    C     -4.44755094     -2.19406313     -0.77893625
    H     -3.51356228     -2.18596864     -0.21550148
    H     -5.21124231     -1.70144649     -0.17483927
    H     -4.75032771     -3.23213276     -0.92617148
$end
   
$rem
mem_static = 200
mem_total  = 7500
exchange = b3lyp
basis = G3Large
max_scf_cycles = 50
scf_convergence = 7
symmetry = false
xc_grid = 000075000302
$end
