$molecule
0    1
    C     -4.30755937     -1.54311939      2.52413056
    H     -3.69021588     -0.64822265      2.61481290
    H     -5.34696318     -1.21625356      2.49653576
    H     -4.17009120     -2.14145256      3.42403972
    C     -3.94955360     -2.32081312      1.26423444
    H     -4.58051726     -3.20946421      1.19115134
    H     -2.92054082     -2.68284518      1.32380772
    C     -4.11247522     -1.48717171      0.00000000
    H     -5.14903941     -1.14502041     -0.07767902
    H     -3.50335106     -0.58098131      0.08118933
    C     -3.73309609     -2.23949152     -1.26858141
    H     -4.36236428     -3.12835924     -1.35612219
    H     -2.70662777     -2.60181641     -1.17527492
    C     -3.87608747     -1.38226423     -2.51975067
    H     -3.24455420     -0.49511331     -2.46461052
    H     -3.60036838     -1.93353603     -3.41770778
    H     -4.90539134     -1.04425121     -2.64053459
$end
   
$rem
mem_static = 200
mem_total  = 7500
exchange = b3lyp
basis = G3Large
max_scf_cycles = 50
scf_convergence = 7
symmetry = false
xc_grid = 000075000302
$end
