$molecule
0    1
    C      0.31963968      0.38802059     -2.52413056
    H     -0.76403537      0.30083381     -2.61481290
    H      0.55626748      1.45160361     -2.49653576
    H      0.76907733     -0.03019692     -3.42403972
    C      0.81413933     -0.31086836     -1.26423444
    H      1.89921558     -0.20876336     -1.19115134
    H      0.61316190     -1.38303561     -1.32380772
    C      0.17364550      0.24704661      0.00000000
    H      0.39561588      1.31581317      0.07767902
    H     -0.91570049      0.17262480     -0.08118933
    C      0.63548401     -0.45766527      1.26858141
    H      1.71990012     -0.35713689      1.35612219
    H      0.43603240     -1.52777536      1.17527492
    C     -0.03540092      0.09478254      2.51975067
    H     -1.11946279     -0.00856585      2.46461052
    H      0.30415492     -0.41963309      3.41770778
    H      0.18652315      1.15519235      2.64053459
$end
   
$rem
mem_static = 200
mem_total  = 7500
exchange = b3lyp
basis = G3Large
max_scf_cycles = 50
scf_convergence = 7
symmetry = false
xc_grid = 000075000302
$end
