$molecule
0    1
    C     -3.23808566     -2.85216225      0.70522265
    H     -2.28126131     -2.56572705      1.14454941
    H     -3.45846124     -3.86385758      1.04150447
    C     -4.29887290     -1.83430749      1.12724271
    H     -4.23682666     -1.56374138      2.18047681
    H     -5.29829634     -2.23405353      0.93958388
    C     -4.02945341     -0.66788820      0.17897127
    H     -3.11829874     -0.15432406      0.49357659
    H     -4.83139565      0.06906624      0.15278797
    C     -3.80857080     -1.35833794     -1.17301289
    H     -3.18219076     -0.77603089     -1.84670108
    H     -4.76973146     -1.49653676     -1.66853674
    C     -3.18529503     -2.73547227     -0.83241394
    H     -2.16850006     -2.81760381     -1.21249437
    H     -3.75977452     -3.53580276     -1.29636011
$end
   
$rem
mem_static = 200
mem_total  = 7500
exchange = b3lyp
basis = G3Large
max_scf_cycles = 50
scf_convergence = 7
symmetry = false
xc_grid = 000075000302
$end
