$molecule
0    1
    C      0.11992577     -0.96192104     -0.70522265
    H     -0.83689859     -0.67548584     -1.14454941
    H      0.34030134     -1.97361637     -1.04150447
    C      1.18071300      0.05593371     -1.12724271
    H      1.11866676      0.32649983     -2.18047681
    H      2.18013644     -0.34381232     -0.93958388
    C      0.91129351      1.22235301     -0.17897127
    H      0.00013884      1.73591715     -0.49357659
    H      1.71323575      1.95930745     -0.15278797
    C      0.69041090      0.53190326      1.17301289
    H      0.06403086      1.11421032      1.84670108
    H      1.65157156      0.39370445      1.66853674
    C      0.06713513     -0.84523107      0.83241394
    H     -0.94965984     -0.92736260      1.21249437
    H      0.64161462     -1.64556156      1.29636011
$end
   
$rem
mem_static = 200
mem_total  = 7500
exchange = b3lyp
basis = G3Large
max_scf_cycles = 50
scf_convergence = 7
symmetry = false
xc_grid = 000075000302
$end
