$molecule
0    1
    C      0.22332930     -0.00031317      0.00043697
    C      1.39557274      0.60196025      0.77024994
    H      2.26469852     -0.05610625      0.73062746
    H      1.68269415      1.56665055      0.34903934
    H      1.13407441      0.75268983      1.81862804
    C      0.61837672     -0.20073930     -1.46017873
    H     -0.20631644     -0.63212542     -2.02927214
    H      0.88949974      0.74908464     -1.92350668
    H      1.47368558     -0.87288479     -1.54164423
    C     -0.97272120      0.94605742      0.07434304
    H     -1.82633712      0.53249297     -0.46590143
    H     -0.72742864      1.91314439     -0.36834613
    H     -1.26824761      1.11681223      1.11139031
    C     -0.14975008     -1.34697025      0.61588630
    H     -0.41331985     -1.23670740      1.66911123
    H     -0.99842674     -1.78846898      0.08989383
    H      0.68662236     -2.04452147      0.55119214
$end
   
$rem
mem_static = 200
mem_total  = 7500
exchange = b3lyp
basis = G3Large
max_scf_cycles = 50
scf_convergence = 7
symmetry = false
xc_grid = 000075000302
$end
