$molecule
0    1
    C      0.55348099     -0.00022650      0.00045294
    C      1.40046149      0.20621452      1.25325225
    H      1.74042961     -0.74993590      1.65350106
    H      2.28053724      0.81203096      1.03203387
    H      0.82574149      0.71207680      2.03042515
    C      1.38201865     -0.71001510     -1.06695365
    H      0.79423039     -0.86877717     -1.97214959
    H      2.26089977     -0.12067514     -1.33264592
    H      1.72270315     -1.68283614     -0.70985042
    C      0.09762614      1.35573605     -0.53356778
    H     -0.51543530      1.23214414     -1.42824117
    H      0.95682908      1.97637085     -0.79430156
    H     -0.48769589      1.89084256      0.21677830
    C     -0.66615446     -0.85105530      0.34690800
    H     -1.26476013     -0.37812957      1.12724266
    H     -1.29564990     -0.99741476     -0.53295317
    H     -0.35963734     -1.83348581      0.70906744
$end
   
$rem
mem_static = 200
mem_total  = 7500
exchange = b3lyp
basis = G3Large
max_scf_cycles = 50
scf_convergence = 7
symmetry = false
xc_grid = 000075000302
$end
