$molecule
0    1
    C     -3.27839166     -2.53294177      2.19872013
    H     -2.19893965     -2.56300338      2.34934288
    H     -3.74706377     -2.56947284      3.18206722
    H     -3.56478933     -3.43365520      1.65794292
    C     -3.68748698     -1.27086552      1.45081314
    H     -4.76847344     -1.27069816      1.29303514
    H     -3.23032366     -1.26206978      0.45897580
    C     -3.29192661     -0.00021938      2.19064910
    H     -3.75167574     -0.00078032      3.18350742
    H     -2.21009354     -0.00065678      2.35635586
    C     -3.68679296      1.27162850      1.45255230
    H     -4.76773592      1.27247453      1.29506879
    H     -3.22984759      1.26384122      0.46062328
    C     -3.27655851      2.53243936      2.20204927
    H     -2.19704622      2.56149475      2.35250819
    H     -3.56242414      3.43407486      1.66259748
    H     -3.74499482      2.56796039      3.18560244
$end
   
$rem
mem_static = 200
mem_total  = 7500
exchange = b3lyp
basis = G3Large
max_scf_cycles = 50
scf_convergence = 7
symmetry = false
xc_grid = 000075000302
$end
