$molecule
0    1
    C     -3.39993315     -2.53294177     -1.62340150
    H     -2.99065028     -2.56300338     -0.61325727
    H     -4.48587278     -2.56947284     -1.53760992
    H     -3.07480519     -3.43365520     -2.14181777
    C     -2.95677436     -1.27086552     -2.35164194
    H     -3.36062783     -1.27069816     -3.36669268
    H     -1.86923637     -1.26206978     -2.45164556
    C     -3.39971091     -0.00021938     -1.63915863
    H     -4.48942600     -0.00078032     -1.54088390
    H     -3.00230065     -0.00065678     -0.61941033
    C     -2.95793351      1.27162850     -2.35017133
    H     -3.36202027      1.27247453     -3.36503714
    H     -1.87042510      1.26384122     -2.45040954
    C     -3.40189970      2.53243936     -1.62014938
    H     -2.99244480      2.56149475     -0.61003486
    H     -3.07765356      3.43407486     -2.13744218
    H     -4.48789989      2.56796039     -1.53405054
$end
   
$rem
mem_static = 200
mem_total  = 7500
exchange = b3lyp
basis = G3Large
max_scf_cycles = 50
scf_convergence = 7
symmetry = false
xc_grid = 000075000302
$end
