$molecule
0    1
    C      0.29629431     -2.53294177     -0.29068061
    H     -0.78315769     -2.56300338     -0.44130336
    H      0.76496643     -2.56947284     -1.27402770
    H      0.58269198     -3.43365520      0.25009661
    C      0.70538963     -1.27086552      0.45722638
    H      1.78637610     -1.27069816      0.61500439
    H      0.24822632     -1.26206978      1.44906372
    C      0.30982926     -0.00021938     -0.28260958
    H      0.76957839     -0.00078032     -1.27546790
    H     -0.77200381     -0.00065678     -0.44831634
    C      0.70469562      1.27162850      0.45548722
    H      1.78563857      1.27247453      0.61297073
    H      0.24775025      1.26384122      1.44741624
    C      0.29446116      2.53243936     -0.29400975
    H     -0.78505112      2.56149475     -0.44446867
    H      0.58032680      3.43407486      0.24544205
    H      0.76289747      2.56796039     -1.27756292
$end
   
$rem
mem_static = 200
mem_total  = 7500
exchange = b3lyp
basis = G3Large
max_scf_cycles = 50
scf_convergence = 7
symmetry = false
xc_grid = 000075000302
$end
