$molecule
0    1
    C     -0.42043113      2.18735149      0.33577462
    H     -1.16392739      1.76744791      1.01387055
    H      0.33499354      2.68328078      0.94524018
    H     -0.91004061      2.94691556     -0.27211895
    C      0.20545893      1.09348748     -0.51928639
    H      0.93106724      1.53195570     -1.20830546
    H     -0.56186923      0.62146308     -1.13672250
    C      0.88926466      0.02160176      0.31773185
    H      1.68131088      0.47872527      0.91846876
    H      0.16528394     -0.39678137      1.02184392
    C      1.47556770     -1.10594296     -0.52014525
    H      2.21782848     -0.69628829     -1.20914309
    H      0.68302741     -1.53431296     -1.13752146
    C      2.11043670     -2.19524236      0.33414314
    H      1.37534223     -2.62963223      1.01226234
    H      2.52334332     -2.99860614     -0.27435549
    H      2.91777042     -1.78912684      0.94352027
$end
   
$rem
mem_static = 200
mem_total  = 7500
exchange = b3lyp
basis = G3Large
max_scf_cycles = 50
scf_convergence = 7
symmetry = false
xc_grid = 000075000302
$end
