$molecule
0    1
    C      1.07354302     -0.07193082     -2.47350411
    H      0.84653195      0.97446703     -2.68027881
    H      2.15038664     -0.14761062     -2.32102366
    H      0.81982252     -0.64896877     -3.36142641
    C      0.31515198     -0.56197541     -1.24666966
    H      0.56025801     -1.61033676     -1.06109978
    H     -0.76088657     -0.52208409     -1.42692053
    C      0.63957963      0.25034094      0.00000000
    H      1.72028288      0.23622523      0.17375316
    H      0.37283003      1.29834576     -0.17135845
    C     -0.07864540     -0.24985944      1.24598630
    H      0.20734518     -1.28815445      1.42933035
    H     -1.15388571     -0.25330703      1.05752137
    C      0.23791929      0.59295487      2.47421311
    H     -0.05879054      1.63025959      2.31433015
    H     -0.27875545      0.22761883      3.36108950
    H      1.30739829      0.58578745      2.68577752
$end
   
$rem
mem_static = 200
mem_total  = 7500
exchange = b3lyp
basis = G3Large
max_scf_cycles = 50
scf_convergence = 7
symmetry = false
xc_grid = 000075000302
$end
