$molecule
0    1
    C      3.02542244      0.25235297     -1.85164250
    H      2.50544792      1.04505454     -2.39061279
    H      3.78958524      0.72523414     -1.23438364
    H      3.52895797     -0.37423681     -2.58621048
    C      2.05540746     -0.55123362     -0.99505450
    H      2.60040582     -1.33658817     -0.46612192
    H      1.32123053     -1.05470600     -1.62706753
    C      1.32365007      0.31446680      0.02199529
    H      2.05341321      0.84259386      0.64395711
    H      0.75546770      1.08869079     -0.50391265
    C      0.37858127     -0.47783195      0.91510061
    H      0.95099711     -1.23402652      1.45729253
    H     -0.33212365     -1.01843781      0.28715439
    C     -0.36305792      0.41034899      1.90514919
    H     -0.95481494      1.16032632      1.37888118
    H     -1.03580703     -0.16437866      2.54081396
    H      0.33637270      0.93888132      2.55325919
$end
   
$rem
mem_static = 200
mem_total  = 7500
exchange = b3lyp
basis = G3Large
max_scf_cycles = 50
scf_convergence = 7
symmetry = false
xc_grid = 000075000302
$end
