$molecule
0    1
    C     -3.98442523      2.33909611      2.47350411
    H     -2.96471258      2.66569767      2.68027881
    H     -4.58838767      3.23383013      2.32102366
    H     -4.35729450      1.83084873      3.36142641
    C     -4.02962077      1.43728790      1.24666966
    H     -5.06008135      1.12537527      1.06109978
    H     -3.45705460      0.52535684      1.42692053
    C     -3.48834800      2.12440866      0.00000000
    H     -4.04092420      3.05326728     -0.17375316
    H     -2.44737441      2.41739914      0.17135845
    C     -3.56242172      1.25230735     -1.24598630
    H     -4.60460687      0.98083495     -1.42933035
    H     -3.02778727      0.31939813     -1.05752137
    C     -2.99080547      1.94786757     -2.47421311
    H     -1.94411831      2.20956167     -2.31433015
    H     -3.04885839      1.31774610     -3.36108950
    H     -3.53175213      2.87047984     -2.68577752
$end
   
$rem
mem_static = 200
mem_total  = 7500
exchange = b3lyp
basis = G3Large
max_scf_cycles = 50
scf_convergence = 7
symmetry = false
xc_grid = 000075000302
$end
