$molecule
0    1
    C      0.41021854      0.25235297     -2.43259229
    H     -0.31653068      1.04505454     -2.25176629
    H      1.32686180      0.72523414     -2.78574726
    H      0.02583177     -0.37423681     -3.23595085
    C      0.66703802     -0.55123362     -1.16424068
    H      1.39760626     -1.33658817     -1.37175681
    H     -0.24738978     -1.05470600     -0.84443132
    C      1.18195028      0.31446680     -0.02199529
    H      2.08546659      0.84259386     -0.34300781
    H      0.44240946      1.08869079      0.20711110
    C      1.48286778     -0.47783195      1.24301096
    H      2.23862767     -1.23402652      1.01838026
    H      0.58369794     -1.01843781      1.54452636
    C      1.96945540      0.41034899      2.38031362
    H      1.21781543      1.16032632      2.62965623
    H      2.18358269     -0.16437866      3.28076383
    H      2.88045044      0.93888132      2.09864394
$end
   
$rem
mem_static = 200
mem_total  = 7500
exchange = b3lyp
basis = G3Large
max_scf_cycles = 50
scf_convergence = 7
symmetry = false
xc_grid = 000075000302
$end
