$molecule
0    1
    C      0.99400769      0.14594709     -0.24213629
    H     -0.04965068      0.00000000      0.00000000
    C      1.82368958     -0.95688936     -0.43790892
    H      1.41761888     -1.95517760     -0.34576783
    C      3.16936488     -0.77342712     -0.75144944
    H      3.81207650     -1.63011371     -0.90318515
    C      3.68752694      0.51519338     -0.86994782
    H      4.73158556      0.65839027     -1.11340248
    C      2.85962307      1.61923838     -0.67443245
    H      3.26159919      2.61917320     -0.76631565
    C      1.51413387      1.43374539     -0.36051839
    H      0.87155064      2.29067171     -0.20877862
$end
   
$rem
mem_static = 200
mem_total  = 7500
exchange = b3lyp
basis = G3Large
max_scf_cycles = 50
scf_convergence = 7
symmetry = false
xc_grid = 000075000302
$end
