$molecule
0    1
    C     -3.45768822     -0.39543530      1.94931165
    H     -2.73281563      0.00000000      1.25121137
    C     -3.50452112     -1.76536063      2.20240940
    H     -2.81376715     -2.42686825      1.69720705
    C     -4.43644882     -2.27931531      3.10250352
    H     -4.47165850     -3.34258347      3.29804115
    C     -5.32381022     -1.42241825      3.75165201
    H     -6.04713292     -1.82043542      4.45037979
    C     -5.27870551     -0.05233530      3.49984908
    H     -5.96723048      0.61264559      4.00346674
    C     -4.34622481      0.45976766      2.59900437
    H     -4.31121726      1.52317924      2.40357876
$end
   
$rem
mem_static = 200
mem_total  = 7500
exchange = b3lyp
basis = G3Large
max_scf_cycles = 50
scf_convergence = 7
symmetry = false
xc_grid = 000075000302
$end
