$molecule
0    1
    C     -3.47427028     -2.08207249      0.24213629
    H     -2.82604720     -1.25121137      0.00000000
    C     -2.93402684     -3.35201630      0.43790892
    H     -1.86644851     -3.49949288      0.34576783
    C     -3.76574745     -4.42567418      0.75144944
    H     -3.34519091     -5.41062206      0.90318515
    C     -5.14080657     -4.23010543      0.86994782
    H     -5.78684802     -5.06268828      1.11340248
    C     -5.68298565     -2.96109715      0.67443245
    H     -6.74994266     -2.80925128      0.76631565
    C     -4.84959941     -1.88861582      0.36051839
    H     -5.27042776     -0.90365925      0.20877862
$end
   
$rem
mem_static = 200
mem_total  = 7500
exchange = b3lyp
basis = G3Large
max_scf_cycles = 50
scf_convergence = 7
symmetry = false
xc_grid = 000075000302
$end
