$molecule
0    1
    C     -3.77902721      1.39715846      0.24213629
    H     -2.73536884      1.25121137      0.00000000
    C     -4.60870910      0.29432201      0.43790892
    H     -4.20263839     -0.70396623      0.34576783
    C     -5.95438440      0.47778425      0.75144944
    H     -6.59709601     -0.37890234      0.90318515
    C     -6.47254646      1.76640475      0.86994782
    H     -7.51660508      1.90960164      1.11340248
    C     -5.64464259      2.87044975      0.67443245
    H     -6.04661871      3.87038457      0.76631565
    C     -4.29915338      2.68495676      0.36051839
    H     -3.65657015      3.54188308      0.20877862
$end
   
$rem
mem_static = 200
mem_total  = 7500
exchange = b3lyp
basis = G3Large
max_scf_cycles = 50
scf_convergence = 7
symmetry = false
xc_grid = 000075000302
$end
