$molecule
0    1
    N      3.16614376      3.17340220      0.08695191
    C      1.82964893      3.25909740      0.03282904
    H      1.42069704      4.26201587      0.01509689
    C      0.98325344      2.15388097      0.00000000
    H     -0.08830200      2.28852818     -0.04331584
    C      1.54177300      0.88002831      0.02408907
    H      0.91416413      0.00000000      0.00000000
    C      2.92774522      0.77456270      0.08006808
    H      3.41424045     -0.19059419      0.10081818
    C      3.68964491      1.94003192      0.10949859
    H      4.77058025      1.88566828      0.15318937
$end
   
$rem
mem_static = 200
mem_total  = 7500
exchange = b3lyp
basis = G3Large
max_scf_cycles = 50
scf_convergence = 7
symmetry = false
xc_grid = 000075000302
$end
