$molecule
0    1
    N     -5.05344634      4.41216680     -0.08695191
    C     -3.71695151      4.49786201     -0.03282904
    H     -3.30799963      5.50078048     -0.01509689
    C     -2.87055602      3.39264558      0.00000000
    H     -1.79900059      3.52729278      0.04331584
    C     -3.42907559      2.11879291     -0.02408907
    H     -2.80146671      1.23876461     -0.00000000
    C     -4.81504781      2.01332730     -0.08006808
    H     -5.30154303      1.04817041     -0.10081818
    C     -5.57694750      3.17879653     -0.10949859
    H     -6.65788283      3.12443289     -0.15318937
$end
   
$rem
mem_static = 200
mem_total  = 7500
exchange = b3lyp
basis = G3Large
max_scf_cycles = 50
scf_convergence = 7
symmetry = false
xc_grid = 000075000302
$end
