$molecule
0    1
    C     -3.59452628      1.75387030     -0.00586205
    H     -2.67533472      1.21756214      0.00000000
    C     -4.64171873      2.36509048     -0.01297945
    H     -5.55831647      2.90011816     -0.01911582
$end
   
$rem
mem_static = 200
mem_total  = 7500
exchange = b3lyp
basis = G3Large
max_scf_cycles = 50
scf_convergence = 7
symmetry = false
xc_grid = 000075000302
$end
