$molecule
0    1
    C      0.98297389      0.00486071      0.53717534
    H      0.06428300      0.00000000      0.00000000
    C      2.02947563      0.01059668      1.14959187
    H      2.94552953      0.01564538      1.68556151
$end
   
$rem
mem_static = 200
mem_total  = 7500
exchange = b3lyp
basis = G3Large
max_scf_cycles = 50
scf_convergence = 7
symmetry = false
xc_grid = 000075000302
$end
