$molecule
0    1
    C      1.01506667      0.00017395     -0.52857303
    H      0.09183302      0.00000000      0.00000000
    C      2.06701990      0.00044116     -1.13067295
    H      2.98831496      0.00049415     -1.65780962
$end
   
$rem
mem_static = 200
mem_total  = 7500
exchange = b3lyp
basis = G3Large
max_scf_cycles = 50
scf_convergence = 7
symmetry = false
xc_grid = 000075000302
$end
