$molecule
0    1
    C     -3.25781637     -1.93546777      0.00000000
    O     -2.23625119     -2.58018935      0.07153196
    O     -3.28010970     -0.58683028     -0.05735850
    H     -2.35183394     -0.29592948     -0.02747129
    C     -4.64724804     -2.50016969     -0.03454670
    H     -4.59963971     -3.58217447     -0.01026958
    H     -5.21133085     -2.13053281      0.81871205
    H     -5.15702644     -2.16493213     -0.93459009
$end
   
$rem
mem_static = 200
mem_total  = 7500
exchange = b3lyp
basis = G3Large
max_scf_cycles = 50
scf_convergence = 7
symmetry = false
xc_grid = 000075000302
$end
