$molecule
0    1
    C     -0.09881374      0.00000000      0.00000000
    O     -0.55004901     -1.06912786     -0.34311879
    O     -0.69475016      1.17910099     -0.27783216
    H     -1.50197712      0.96689060     -0.77839564
    C      1.17050977      0.20566963      0.77273536
    H      1.61546389     -0.75517816      1.00159694
    H      1.86014379      0.80782596      0.18563741
    H      0.95765975      0.75088307      1.68912693
$end
   
$rem
mem_static = 200
mem_total  = 7500
exchange = b3lyp
basis = G3Large
max_scf_cycles = 50
scf_convergence = 7
symmetry = false
xc_grid = 000075000302
$end
