$molecule
0    1
    C      0.77828079     -1.86992153      0.45074004
    O     -0.11206308     -2.49702992     -0.10456904
    N      0.83490820     -0.51079850      0.44170395
    H      0.08792490      0.00000000      0.00000000
    H      1.54668875     -0.01278305      0.93889873
    C      1.89158175     -2.55844684      1.20661270
    H      1.47426145     -2.99795665      2.11020244
    H      2.70513010     -1.89121655      1.48009678
    H      2.27593002     -3.36762522      0.59264444
$end
   
$rem
mem_static = 200
mem_total  = 7500
exchange = b3lyp
basis = G3Large
max_scf_cycles = 50
scf_convergence = 7
symmetry = false
xc_grid = 000075000302
$end
