$molecule
0    1
    C      0.81350960     -1.86992153     -0.37249571
    O     -0.11257410     -2.49702992      0.12091015
    N      0.83399783     -0.51079850     -0.42605453
    H      0.07797933      0.00000000      0.00000000
    H      1.62047142     -0.01278305     -0.79387719
    C      2.02476501     -2.55844684     -0.95870630
    H      2.59863652     -2.99795665     -0.14550145
    H      2.66838335     -1.89121655     -1.52651779
    H      1.68522703     -3.36762522     -1.59854579
$end
   
$rem
mem_static = 200
mem_total  = 7500
exchange = b3lyp
basis = G3Large
max_scf_cycles = 50
scf_convergence = 7
symmetry = false
xc_grid = 000075000302
$end
