$molecule
0    1
    C      1.59819086     -1.20778168      0.04517438
    O      1.00353127     -2.27523094      0.00943454
    N      0.95718716     -0.00848523      0.00903520
    H     -0.04971298      0.00000000      0.00000000
    H      1.45730651      0.85531752      0.08372823
    C      3.10473170     -1.13302046      0.14312882
    H      3.40276221     -1.46845468      1.13432064
    H      3.49969990     -0.13453429     -0.02680118
    H      3.53172604     -1.82085387     -0.58075742
$end
   
$rem
mem_static = 200
mem_total  = 7500
exchange = b3lyp
basis = G3Large
max_scf_cycles = 50
scf_convergence = 7
symmetry = false
xc_grid = 000075000302
$end
