$molecule
0    1
    O      0.02507038     -0.06074334      0.00000000
    H      0.45310279      0.79742178      0.00000000
    H     -0.90960373      0.16677950     -0.00000000
$end
   
$rem
mem_static = 200
mem_total  = 7500
exchange = b3lyp
basis = G3Large
max_scf_cycles = 50
scf_convergence = 7
symmetry = false
xc_grid = 000075000302
$end
