$molecule
0    1
    O     -3.35488318      1.68308863      0.00000000
    H     -2.82570659      2.48285813      0.00000000
    H     -2.69050557      0.98739853      0.00000000
$end
   
$rem
mem_static = 200
mem_total  = 7500
exchange = b3lyp
basis = G3Large
max_scf_cycles = 50
scf_convergence = 7
symmetry = false
xc_grid = 000075000302
$end
