$molecule
0    1
    O      0.51807197      0.66589590     -0.01437748
    H     -0.31083370      1.15480463     -0.01630572
    C      0.19000921     -0.71006737      0.01483682
    H      1.12628837     -1.26159704      0.01557717
    H     -0.37054107     -0.98440551      0.91147556
    H     -0.38853977     -1.01758711     -0.85932490
$end
   
$rem
mem_static = 200
mem_total  = 7500
exchange = b3lyp
basis = G3Large
max_scf_cycles = 50
scf_convergence = 7
symmetry = false
xc_grid = 000075000302
$end
