$molecule
0    1
    O     -3.26335030      0.66987623     -1.62270627
    H     -2.43093148      0.67883077     -1.13988251
    C     -3.59850565     -0.68577430     -1.84994207
    H     -4.53916420     -0.69527342     -2.39388642
    H     -2.84856547     -1.20363323     -2.45231314
    H     -3.73483473     -1.24136869     -0.91925669
$end
   
$rem
mem_static = 200
mem_total  = 7500
exchange = b3lyp
basis = G3Large
max_scf_cycles = 50
scf_convergence = 7
symmetry = false
xc_grid = 000075000302
$end
