$molecule
0    1
    O     -0.08798491      0.66987623     -0.09821733
    H     -0.92040373      0.67883077     -0.58104110
    C      0.24717044     -0.68577430      0.12901847
    H      1.18782899     -0.69527342      0.67296281
    H     -0.50276974     -1.20363323      0.73138954
    H      0.38349952     -1.24136869     -0.80166691
$end
   
$rem
mem_static = 200
mem_total  = 7500
exchange = b3lyp
basis = G3Large
max_scf_cycles = 50
scf_convergence = 7
symmetry = false
xc_grid = 000075000302
$end
