$molecule
0    1
    O     -0.22317478      0.49436377     -0.01437748
    H     -1.06103499      0.02096476     -0.01630572
    C      0.80441299     -0.47772856      0.01483682
    H      1.75019128      0.05734815      0.01557717
    H      0.76172165     -1.10034841      0.91147556
    H      0.78145841     -1.13252654     -0.85932490
$end
   
$rem
mem_static = 200
mem_total  = 7500
exchange = b3lyp
basis = G3Large
max_scf_cycles = 50
scf_convergence = 7
symmetry = false
xc_grid = 000075000302
$end
