$molecule
0    1
    N      0.54108738     -0.67599386     -0.21067572
    H     -0.31499088     -1.21578590     -0.16630925
    H      0.79053370     -0.64674585     -1.19087030
    C      0.27154018      0.68187048      0.25763678
    H      1.18264604      1.27375877      0.19232134
    H     -0.51823714      1.21211427     -0.28438967
    H     -0.01488919      0.64531415      1.30686043
$end
   
$rem
mem_static = 200
mem_total  = 7500
exchange = b3lyp
basis = G3Large
max_scf_cycles = 50
scf_convergence = 7
symmetry = false
xc_grid = 000075000302
$end
