$molecule
0    1
    N     -0.16597713     -0.47269143     -0.21067572
    H     -1.06148987     -0.00120192     -0.16630925
    H     -0.01592445     -0.67409427     -1.19087030
    C      0.87519428      0.43967547      0.25763678
    H      1.84333751     -0.05342121      0.19232134
    H      0.93951021      1.38876458     -0.28438967
    H      0.70032089      0.66945241      1.30686043
$end
   
$rem
mem_static = 200
mem_total  = 7500
exchange = b3lyp
basis = G3Large
max_scf_cycles = 50
scf_convergence = 7
symmetry = false
xc_grid = 000075000302
$end
