$molecule
0    1
    N     -3.89411225      1.12279648      0.21067572
    H     -3.03803398      0.58300445      0.16630925
    H     -4.14355856      1.15204449      1.19087030
    C     -3.62456504      2.48066082     -0.25763678
    H     -4.53567090      3.07254912     -0.19232134
    H     -2.83478772      3.01090461      0.28438967
    H     -3.33813567      2.44410449     -1.30686043
$end
   
$rem
mem_static = 200
mem_total  = 7500
exchange = b3lyp
basis = G3Large
max_scf_cycles = 50
scf_convergence = 7
symmetry = false
xc_grid = 000075000302
$end
