$molecule
0    1
    C     -3.89072976      1.97080240      1.97650932
    H     -3.20649547      2.07868421      1.13824813
    H     -3.54768562      2.59090886      2.80199984
    H     -4.87789913      2.32349981      1.68877892
    C     -4.01475900      0.54569299      2.46593187
    O     -4.80925959      0.23256512      3.34465854
    N     -3.18644781     -0.34257880      1.85607071
    H     -2.51998488     -0.00000000      1.18510939
    C     -3.14349541     -1.73325733      2.24216438
    H     -4.00687770     -1.92178594      2.87293828
    H     -3.18659471     -2.37479907      1.36423753
    H     -2.23845227     -1.96650142      2.80357075
$end
   
$rem
mem_static = 200
mem_total  = 7500
exchange = b3lyp
basis = G3Large
max_scf_cycles = 50
scf_convergence = 7
symmetry = false
xc_grid = 000075000302
$end
