$molecule
0    1
    C      1.46176696      1.97080240      0.79139992
    H      0.39369433      2.07868421      0.61796624
    H      2.00514065      2.59090886      0.08156972
    H      1.70616982      2.32349981      1.79017888
    C      1.94763394      0.54569299      0.65410112
    O      3.10588386      0.23256512      0.90279547
    N      1.00532309     -0.34257880      0.24169317
    H      0.09102209      0.00000000      0.00000000
    C      1.31821382     -1.73325733      0.01144846
    H      2.29617119     -1.92178594      0.44377250
    H      0.57945652     -2.37479907      0.48773698
    H      1.35188443     -1.96650142     -1.05304508
$end
   
$rem
mem_static = 200
mem_total  = 7500
exchange = b3lyp
basis = G3Large
max_scf_cycles = 50
scf_convergence = 7
symmetry = false
xc_grid = 000075000302
$end
