$molecule
0    1
    C      3.14061877      0.91536502      0.00000000
    H      2.31840622      1.51464084      0.38383834
    H      3.55083678      1.39456281     -0.88641783
    H      3.93275359      0.86528566      0.74276652
    C      2.73301218     -0.49487780     -0.36183775
    O      3.55282350     -1.32976501     -0.72558707
    N      1.40356526     -0.75300918     -0.24783808
    H      0.78447270      0.00000000      0.00000000
    C      0.84319516     -2.03529660     -0.60368121
    H      1.66960069     -2.73011614     -0.71825629
    H      0.17459530     -2.39006888      0.17817540
    H      0.29088685     -1.98574833     -1.54239496
$end
   
$rem
mem_static = 200
mem_total  = 7500
exchange = b3lyp
basis = G3Large
max_scf_cycles = 50
scf_convergence = 7
symmetry = false
xc_grid = 000075000302
$end
