$molecule
0    1
    C     -4.97361174     -0.26974437      0.00000000
    H     -4.15139918      0.32953145     -0.38383834
    H     -5.38382974      0.20945342      0.88641783
    H     -5.76574655     -0.31982373     -0.74276652
    C     -4.56600514     -1.67998720      0.36183775
    O     -5.38581646     -2.51487440      0.72558707
    N     -3.23655822     -1.93811857      0.24783808
    H     -2.61746566     -1.18510939     -0.00000000
    C     -2.67618812     -3.22040600      0.60368121
    H     -3.50259365     -3.91522553      0.71825629
    H     -2.00758826     -3.57517827     -0.17817540
    H     -2.12387981     -3.17085772      1.54239496
$end
   
$rem
mem_static = 200
mem_total  = 7500
exchange = b3lyp
basis = G3Large
max_scf_cycles = 50
scf_convergence = 7
symmetry = false
xc_grid = 000075000302
$end
