$molecule
0    1
    N      0.41631930     -1.03074728     -0.00810806
    C      1.13070031     -2.16461200     -0.02016120
    H      0.55993041     -3.08521324     -0.02556260
    C      2.52223417     -2.20238727     -0.02583604
    H      3.03845195     -3.15183256     -0.03570293
    C      3.22171691     -1.00012608     -0.01857360
    H      4.30293464     -0.98809875     -0.02264139
    C      2.49442853      0.18518729     -0.00600834
    H      2.98990914      1.14560583      0.00000000
    C      1.10277175      0.12325996     -0.00124899
    H      0.50982204      1.03074728      0.00810806
$end
   
$rem
mem_static = 200
mem_total  = 7500
exchange = b3lyp
basis = G3Large
max_scf_cycles = 50
scf_convergence = 7
symmetry = false
xc_grid = 000075000302
$end
