$molecule
0    1
    N      1.28687437     -0.55586151     -0.00810806
    C      2.62602052     -0.50412178     -0.02016120
    H      3.13789964     -1.45872363     -0.02556260
    C      3.35450180      0.68209427     -0.02583604
    H      4.43485443      0.65442933     -0.03570293
    C      2.66305444      1.88899468     -0.01857360
    H      3.19324733      2.83137037     -0.02264139
    C      1.27289876      1.85180116     -0.00600834
    H      0.68889221      2.76110922      0.00000000
    C      0.63070101      0.61562736     -0.00124899
    H     -0.45168091      0.55586151      0.00810806
$end
   
$rem
mem_static = 200
mem_total  = 7500
exchange = b3lyp
basis = G3Large
max_scf_cycles = 50
scf_convergence = 7
symmetry = false
xc_grid = 000075000302
$end
