$molecule
0    1
    N     -2.62845908     -0.91602901      1.48436019
    C     -3.64919609     -1.54079416      2.08760074
    H     -3.61705000     -2.62344317      2.07527819
    C     -4.70636624     -0.87774157      2.70451095
    H     -5.49971800     -1.44187643      3.17394611
    C     -4.71401515      0.51318852      2.70054111
    H     -5.51768656      1.06421337      3.16923809
    C     -3.66157575      1.17605583      2.07840583
    H     -3.62031695      2.25554299      2.04764721
    C     -2.64702816      0.42659679      1.48716088
    H     -1.81404087      0.91602901      0.99543085
$end
   
$rem
mem_static = 200
mem_total  = 7500
exchange = b3lyp
basis = G3Large
max_scf_cycles = 50
scf_convergence = 7
symmetry = false
xc_grid = 000075000302
$end
