$molecule
0    1
    C     -4.00063228      0.70101689     -0.00305500
    O     -3.76963690     -0.48799606     -0.00162922
    O     -3.03415357      1.64245799     -0.00179691
    H     -2.18219893      1.17118320     -0.00000000
    C     -5.36437356      1.32308665     -0.00630997
    H     -6.11809762      0.54509596     -0.01008932
    H     -5.47907056      1.95409140      0.87188336
    H     -5.47348720      1.95762462     -0.88261870
$end
   
$rem
mem_static = 200
mem_total  = 7500
exchange = b3lyp
basis = G3Large
max_scf_cycles = 50
scf_convergence = 7
symmetry = false
xc_grid = 000075000302
$end
