$molecule
0    1
    C     -3.17992067     -1.31639265      1.83840065
    O     -2.49110353     -2.23061038      1.44235824
    O     -2.86208854     -0.01784138      1.65635292
    H     -2.01815614     -0.00000000      1.17118320
    C     -4.47371822     -1.45953508      2.58161651
    H     -4.70402109     -2.51015681      2.71021791
    H     -4.39387737     -0.97041743      3.54957069
    H     -5.26847082     -0.96456589      2.02859297
$end
   
$rem
mem_static = 200
mem_total  = 7500
exchange = b3lyp
basis = G3Large
max_scf_cycles = 50
scf_convergence = 7
symmetry = false
xc_grid = 000075000302
$end
