$molecule
0    1
    C     -3.91939178     -1.81016697      0.01482059
    O     -4.44510950     -0.78563835      0.38232338
    O     -3.69755588     -2.85673799      0.84733427
    H     -4.03427378     -2.57410111      1.71066418
    C     -3.42699879     -2.10466499     -1.36840448
    H     -3.64470505     -1.26435115     -2.01675552
    H     -2.35478844     -2.28615265     -1.33910868
    H     -3.90423189     -3.00662233     -1.74418278
$end
   
$rem
mem_static = 200
mem_total  = 7500
exchange = b3lyp
basis = G3Large
max_scf_cycles = 50
scf_convergence = 7
symmetry = false
xc_grid = 000075000302
$end
