$molecule
0    1
    C      0.71628776      0.10693490     -0.01673247
    O      0.85069354      1.25706157     -0.36348893
    O      1.41934622     -0.91034013     -0.57212548
    H      1.98116424     -0.49721047     -1.24464720
    C     -0.21709814     -0.39430436      1.04158766
    H     -0.74186053      0.44228191      1.48726725
    H     -0.92802154     -1.08758245      0.59730797
    H      0.34349652     -0.93680578      1.79915855
$end
   
$rem
mem_static = 200
mem_total  = 7500
exchange = b3lyp
basis = G3Large
max_scf_cycles = 50
scf_convergence = 7
symmetry = false
xc_grid = 000075000302
$end
