$molecule
0    1
    C     -4.58759414      0.10693490      1.91561032
    O     -4.35449713      1.25706157      2.20538737
    O     -4.45813892     -0.91034013      2.80217331
    H     -4.15662703     -0.49721047      3.62498285
    C     -5.03743332     -0.39430436      0.57811435
    H     -5.16102196      0.44228191     -0.09918300
    H     -4.29721411     -1.08758245      0.18457647
    H     -5.97380627     -0.93680578      0.68481813
$end
   
$rem
mem_static = 200
mem_total  = 7500
exchange = b3lyp
basis = G3Large
max_scf_cycles = 50
scf_convergence = 7
symmetry = false
xc_grid = 000075000302
$end
