$molecule
0    1
    C      0.34938234      0.09650581     -0.01482059
    O      0.87510006      1.12103442     -0.38232338
    O      0.12754644     -0.95006521     -0.84733427
    H      0.46426434     -0.66742834     -1.71066418
    C     -0.14301065     -0.19799221      1.36840448
    H      0.07469561      0.64232163      2.01675552
    H     -1.21522100     -0.37947987      1.33910868
    H      0.33422245     -1.09994955      1.74418278
$end
   
$rem
mem_static = 200
mem_total  = 7500
exchange = b3lyp
basis = G3Large
max_scf_cycles = 50
scf_convergence = 7
symmetry = false
xc_grid = 000075000302
$end
