$molecule
0    1
    C      0.45520578     -0.07204530      0.01526672
    O     -0.34886069     -0.99056771      0.02466833
    N      0.90256374      0.51761418      1.16016959
    H      0.47744012      0.24255368      2.02786899
    H      1.47521923      1.33871706      1.13819118
    C      1.01837121      0.49705961     -1.26520152
    H      1.89416795      1.12197196     -1.10892334
    H      0.24248312      1.08829668     -1.74874102
    H      1.27034898     -0.32537825     -1.92781804
$end
   
$rem
mem_static = 200
mem_total  = 7500
exchange = b3lyp
basis = G3Large
max_scf_cycles = 50
scf_convergence = 7
symmetry = false
xc_grid = 000075000302
$end
