$molecule
0    1
    C     -3.05021168      2.95938508     -0.54654135
    O     -2.86599590      3.21656203     -1.71352970
    O     -2.64479107      3.78674613      0.45055827
    H     -2.22440895      4.53461637      0.00113400
    C     -3.71927238      1.73851361      0.00000000
    H     -4.12535259      1.15340858     -0.81636126
    H     -2.98471274      1.14768921      0.54549414
    H     -4.50496110      2.02553315      0.69468716
$end
   
$rem
mem_static = 200
mem_total  = 7500
exchange = b3lyp
basis = G3Large
max_scf_cycles = 50
scf_convergence = 7
symmetry = false
xc_grid = 000075000302
$end
