$molecule
0    1
    C     -3.81757079      1.39183605      1.28070101
    O     -4.37426402      1.70666572      0.25458591
    O     -3.37321336      2.31106205      2.17550259
    H     -3.60647622      3.16892774      1.79122652
    C     -3.51744278      0.00000000      1.73851361
    H     -3.97682566     -0.70975592      1.06108565
    H     -2.43794152     -0.14438912      1.74514564
    H     -3.88364885     -0.14427815      2.75209842
$end
   
$rem
mem_static = 200
mem_total  = 7500
exchange = b3lyp
basis = G3Large
max_scf_cycles = 50
scf_convergence = 7
symmetry = false
xc_grid = 000075000302
$end
