$molecule
0    1
    C      0.25599513      1.22087147      0.54654135
    O      0.07177936      1.47804842      1.71352970
    O     -0.14942549      2.04823252     -0.45055827
    H     -0.56980760      2.79610276     -0.00113400
    C      0.92505582      0.00000000      0.00000000
    H      1.33113604     -0.58510502      0.81636126
    H      0.19049619     -0.59082440     -0.54549414
    H      1.71074455      0.28701954     -0.69468716
$end
   
$rem
mem_static = 200
mem_total  = 7500
exchange = b3lyp
basis = G3Large
max_scf_cycles = 50
scf_convergence = 7
symmetry = false
xc_grid = 000075000302
$end
