$molecule
0    1
    C     -3.21561969      0.44269701      2.19081131
    H     -3.51867936      0.66300178      3.20475305
    H     -2.35874750      0.97355894      1.79970966
    C     -3.87192001     -0.44360219      1.44200472
    H     -4.73187488     -0.97162163      1.82973276
    H     -3.55917700     -0.65415283      0.42900936
$end
   
$rem
mem_static = 200
mem_total  = 7500
exchange = b3lyp
basis = G3Large
max_scf_cycles = 50
scf_convergence = 7
symmetry = false
xc_grid = 000075000302
$end
