$molecule
0    1
    C     -3.92137597      0.44269701     -1.34509457
    H     -4.95100511      0.66300178     -1.10058107
    H     -3.15423590      0.97355894     -0.79857231
    C     -3.60104059     -0.44360219     -2.28787061
    H     -4.36680036     -0.97162163     -2.83874935
    H     -2.56738937     -0.65415283     -2.52352490
$end
   
$rem
mem_static = 200
mem_total  = 7500
exchange = b3lyp
basis = G3Large
max_scf_cycles = 50
scf_convergence = 7
symmetry = false
xc_grid = 000075000302
$end
