$molecule
0    1
    C     -4.12448827     -1.38456608      0.48827479
    H     -4.90098506     -1.57849067      1.21484426
    H     -3.57791310     -0.45601421      0.57800692
    C     -3.84932113     -2.24910844     -0.48836090
    H     -4.39816874     -3.17569007     -0.58255600
    H     -3.07084870     -2.04278010     -1.20926911
$end
   
$rem
mem_static = 200
mem_total  = 7500
exchange = b3lyp
basis = G3Large
max_scf_cycles = 50
scf_convergence = 7
symmetry = false
xc_grid = 000075000302
$end
