$molecule
0    1
    C      0.58256743      0.44269701     -0.47122624
    H      1.61219657      0.66300178     -0.71573973
    H     -0.18457263      0.97355894     -1.01774850
    C      0.26223205     -0.44360219      0.47154980
    H      1.02799182     -0.97162163      1.02242854
    H     -0.77141916     -0.65415283      0.70720409
$end
   
$rem
mem_static = 200
mem_total  = 7500
exchange = b3lyp
basis = G3Large
max_scf_cycles = 50
scf_convergence = 7
symmetry = false
xc_grid = 000075000302
$end
