$molecule
0    1
    C     -4.03053449     -2.27365669      0.06156253
    H     -4.94765115     -2.80695196      0.09101013
    C     -2.98188547     -1.66399712      0.02801087
    H     -2.05591270     -1.12648362     -0.00000000
$end
   
$rem
mem_static = 200
mem_total  = 7500
exchange = b3lyp
basis = G3Large
max_scf_cycles = 50
scf_convergence = 7
symmetry = false
xc_grid = 000075000302
$end
