$molecule
0    1
    C      2.10880199     -0.00617013      1.08851487
    H      3.04228691     -0.00945905      1.59345948
    C      1.04154906     -0.00251396      0.51107822
    H      0.10031387     -0.00000000     -0.00000000
$end
   
$rem
mem_static = 200
mem_total  = 7500
exchange = b3lyp
basis = G3Large
max_scf_cycles = 50
scf_convergence = 7
symmetry = false
xc_grid = 000075000302
$end
