$molecule
0    1
    N      0.65082885      0.00000000      0.00000000
    C      0.14716752     -1.06818657     -0.63506446
    H     -0.75082397     -1.49425330     -0.20635941
    C      0.70577075     -1.61352824     -1.78764784
    H      0.24950971     -2.47506544     -2.25379506
    C      1.84778867     -1.02502715     -2.32103373
    H      2.30765024     -1.41889012     -3.21674178
    C      2.38213243      0.08401618     -1.67365913
    H      3.26744850      0.57866605     -2.04702824
    C      1.75221875      0.55473439     -0.52476786
    H      2.14520473      1.41682869      0.00000000
$end
   
$rem
mem_static = 200
mem_total  = 7500
exchange = b3lyp
basis = G3Large
max_scf_cycles = 50
scf_convergence = 7
symmetry = false
xc_grid = 000075000302
$end
