$molecule
0    1
    N     -2.96744970      0.00000000      1.17846755
    C     -2.73470983     -1.17690737      1.77740440
    H     -2.46006104     -1.99488773      1.12380989
    C     -2.81351043     -1.36988549      3.15378859
    H     -2.61129759     -2.34412911      3.57530140
    C     -3.14850248     -0.28921964      3.96309731
    H     -3.21609230     -0.40038419      5.03639488
    C     -3.39271775      0.93841194      3.35657126
    H     -3.65583057      1.80944933      3.93960904
    C     -3.29090115      1.03110903      1.97116207
    H     -3.47472679      1.97419759      1.47134411
$end
   
$rem
mem_static = 200
mem_total  = 7500
exchange = b3lyp
basis = G3Large
max_scf_cycles = 50
scf_convergence = 7
symmetry = false
xc_grid = 000075000302
$end
