$molecule
0    1
    N      0.60724468      0.00000000      0.00000000
    C      0.37450481     -1.17690737     -0.59893685
    H      0.09985601     -1.99488773      0.05465765
    C      0.45330541     -1.36988549     -1.97532104
    H      0.25109256     -2.34412911     -2.39683385
    C      0.78829745     -0.28921964     -2.78462976
    H      0.85588728     -0.40038419     -3.85792734
    C      1.03251273      0.93841194     -2.17810372
    H      1.29562555      1.80944933     -2.76114149
    C      0.93069613      1.03110903     -0.79269452
    H      1.11452177      1.97419759     -0.29287657
$end
   
$rem
mem_static = 200
mem_total  = 7500
exchange = b3lyp
basis = G3Large
max_scf_cycles = 50
scf_convergence = 7
symmetry = false
xc_grid = 000075000302
$end
