$molecule
0    1
    N      0.11586372      0.00000000      0.00000000
    C      0.78910977     -0.97027679     -0.63506446
    H      0.70909863     -1.96099360     -0.20635941
    C      1.54069112     -0.75918303     -1.78764784
    H      2.05867370     -1.58508529     -2.25379506
    C      1.60204318      0.52408404     -2.32103373
    H      2.17306931      0.72540436     -3.21674178
    C      0.90875537      1.54136098     -1.67365913
    H      0.92303405      2.55539212     -2.04702824
    C      0.18614460      1.23119883     -0.52476786
    H     -0.36395798      2.00258183      0.00000000
$end
   
$rem
mem_static = 200
mem_total  = 7500
exchange = b3lyp
basis = G3Large
max_scf_cycles = 50
scf_convergence = 7
symmetry = false
xc_grid = 000075000302
$end
