$molecule
0    1
    C      0.68416019      0.33775110     -1.91148254
    C     -0.68416019     -0.33775110     -1.91148254
    H      1.48964542     -0.40143411     -1.91148254
    H      0.81277323      0.96966027     -2.79429179
    H      0.81277323      0.96966027     -1.02867329
    H     -1.48964542      0.40143411     -1.91148254
    H     -0.81277323     -0.96966027     -2.79429179
    H     -0.81277323     -0.96966027     -1.02867329
    C      0.68416019     -0.33775110      1.91148254
    C     -0.68416019      0.33775110      1.91148254
    H      1.48964542      0.40143411      1.91148254
    H      0.81277323     -0.96966027      2.79429179
    H      0.81277323     -0.96966027      1.02867329
    H     -1.48964542     -0.40143411      1.91148254
    H     -0.81277323      0.96966027      2.79429179
    H     -0.81277323      0.96966027      1.02867329
$end
   
$rem
mem_static = 200
mem_total  = 7500
exchange = b3lyp
basis = G3Large
max_scf_cycles = 50
scf_convergence = 7
symmetry = false
xc_grid = 000075000302
$end
