$molecule
0    1
    C      0.00000000      0.00000000      0.76298819
    C      0.00000000      0.00000000     -0.76298819
    H     -0.88280903      0.50969003      1.15804011
    H      0.00000000     -1.01938007      1.15804011
    H      0.88280903      0.50969003      1.15804011
    H      0.88280903     -0.50969003     -1.15804011
    H     -0.88280903     -0.50969003     -1.15804011
    H      0.00000000      1.01938007     -1.15804011
$end
   
$rem
mem_static = 200
mem_total  = 7500
exchange = b3lyp
basis = G3Large
max_scf_cycles = 50
scf_convergence = 7
symmetry = false
xc_grid = 000075000302
$end
