$molecule
0    1
    C      0.00000000      0.00000000      0.61907431
    C      0.00000000      1.26823136     -0.22976690
    C      0.00000000     -1.26823136     -0.22976690
    H      0.87710046      0.00000000      1.27633940
    H     -0.87710046      0.00000000      1.27633940
    H      0.00000000      2.16788361      0.39247929
    H     -0.88388886      1.30485237     -0.87429448
    H      0.88388886      1.30485237     -0.87429448
    H      0.00000000     -2.16788361      0.39247929
    H     -0.88388886     -1.30485237     -0.87429448
    H      0.88388886     -1.30485237     -0.87429448
$end
   
$rem
mem_static = 200
mem_total  = 7500
exchange = b3lyp
basis = G3Large
max_scf_cycles = 50
scf_convergence = 7
symmetry = false
xc_grid = 000075000302
$end
