&FORCE_EVAL 
  &DFT 
    MULTIPLICITY 1
    CHARGE 0
    &POISSON 
      PERIODIC NONE
      PSOLVER MT
    &END POISSON
  &END DFT
  &SUBSYS 
    &CELL 
      PERIODIC NONE
      ABC     13.02692800     13.00545200     15.02336200
    &END CELL
    &COORD 
          O      6.51346400      5.75136300      8.17842150
          H      7.27019600      5.75136300      8.76752150
          H      5.75673200      5.75136300      8.76752150
          O      6.51346400      7.25408900      7.18755650
          H      6.51346400      6.40655800      7.63630050
          H      6.51346400      7.02696100      6.25584050
    &END COORD
  &END SUBSYS
&END FORCE_EVAL

&GLOBAL 
  PROJECT H2O_dimer_1dot80
&END GLOBAL

