&FORCE_EVAL 
  &DFT 
    MULTIPLICITY 1
    CHARGE 0
    &POISSON 
      PERIODIC NONE
      PSOLVER MT
    &END POISSON
  &END DFT
  &SUBSYS 
    &CELL 
      PERIODIC NONE
      ABC     13.02692800     14.85881400     16.24543000
    &END CELL
    &COORD 
          O      6.51346400      6.21470350      9.09497250
          H      7.27019600      6.21470350      9.68407250
          H      5.75673200      6.21470350      9.68407250
          O      6.51346400      8.64411050      7.49307350
          H      6.51346400      7.79657950      7.94181850
          H      6.51346400      8.41698350      6.56135750
    &END COORD
  &END SUBSYS
&END FORCE_EVAL

&GLOBAL 
  PROJECT H2O_dimer_2dot91
&END GLOBAL

