&FORCE_EVAL 
  &DFT 
    MULTIPLICITY 1
    CHARGE 0
    &POISSON 
      PERIODIC NONE
      PSOLVER MT
    &END POISSON
  &END DFT
  &SUBSYS 
    &CELL 
      PERIODIC NONE
      ABC     13.02692800     19.01635600     18.98682400
    &END CELL
    &COORD 
          O      6.51346400      7.25408900     11.15101800
          H      7.27019600      7.25408900     11.74011800
          H      5.75673200      7.25408900     11.74011800
          O      6.51346400     11.76226700      8.17842200
          H      6.51346400     10.91473600      8.62716700
          H      6.51346400     11.53514000      7.24670600
    &END COORD
  &END SUBSYS
&END FORCE_EVAL

&GLOBAL 
  PROJECT H2O_dimer_5dot40
&END GLOBAL

