&FORCE_EVAL 
  &DFT 
    MULTIPLICITY 1
    CHARGE 0
    &POISSON 
      PERIODIC NONE
      PSOLVER MT
    &END POISSON
  &END DFT
  &SUBSYS 
    &CELL 
      PERIODIC NONE
      ABC     13.02692800     15.34302600     16.56470800
    &END CELL
    &COORD 
          O      6.51346400      6.33575650      9.33443100
          H      7.27019600      6.33575650      9.92353100
          H      5.75673200      6.33575650      9.92353100
          O      6.51346400      9.00726950      7.57289300
          H      6.51346400      8.15973850      8.02163700
          H      6.51346400      8.78014150      6.64117700
    &END COORD
  &END SUBSYS
&END FORCE_EVAL

&GLOBAL 
  PROJECT H2O_dimer_3dot20
&END GLOBAL

