&FORCE_EVAL 
  &DFT 
    MULTIPLICITY 1
    CHARGE 0
    &POISSON 
      PERIODIC NONE
      PSOLVER MT
    &END POISSON
  &END DFT
  &SUBSYS 
    &CELL 
      PERIODIC NONE
      ABC     13.02692800     16.67878200     17.44547800
    &END CELL
    &COORD 
          O      6.51346400      6.66969550      9.99500850
          H      7.27019600      6.66969550     10.58410850
          H      5.75673200      6.66969550     10.58410850
          O      6.51346400     10.00908650      7.79308550
          H      6.51346400      9.16155550      8.24183050
          H      6.51346400      9.78195950      6.86136950
    &END COORD
  &END SUBSYS
&END FORCE_EVAL

&GLOBAL 
  PROJECT H2O_dimer_4dot00
&END GLOBAL

