&FORCE_EVAL 
  &DFT 
    MULTIPLICITY 1
    CHARGE 0
    &POISSON 
      PERIODIC NONE
      PSOLVER MT
    &END POISSON
  &END DFT
  &SUBSYS 
    &CELL 
      PERIODIC NONE
      ABC     13.02692800     16.01090400     17.00509200
    &END CELL
    &COORD 
          O      6.51346400      6.50272600      9.66471900
          H      7.27019600      6.50272600     10.25381900
          H      5.75673200      6.50272600     10.25381900
          O      6.51346400      9.50817800      7.68298800
          H      6.51346400      8.66064700      8.13173300
          H      6.51346400      9.28105100      6.75127300
    &END COORD
  &END SUBSYS
&END FORCE_EVAL

&GLOBAL 
  PROJECT H2O_dimer_3dot60
&END GLOBAL

