&FORCE_EVAL 
  &DFT 
    MULTIPLICITY 1
    CHARGE 0
    &POISSON 
      PERIODIC NONE
      PSOLVER MT
    &END POISSON
  &END DFT
  &SUBSYS 
    &CELL 
      PERIODIC NONE
      ABC     13.02692800     17.01272200     17.66567000
    &END CELL
    &COORD 
          O      6.51346400      6.75318050     10.16015250
          H      7.27019600      6.75318050     10.74925250
          H      5.75673200      6.75318050     10.74925250
          O      6.51346400     10.25954150      7.84813350
          H      6.51346400      9.41201050      8.29687850
          H      6.51346400     10.03241350      6.91641750
    &END COORD
  &END SUBSYS
&END FORCE_EVAL

&GLOBAL 
  PROJECT H2O_dimer_4dot20
&END GLOBAL

