&FORCE_EVAL 
  &DFT 
    MULTIPLICITY 1
    CHARGE 0
    &POISSON 
      PERIODIC NONE
      PSOLVER MT
    &END POISSON
  &END DFT
  &SUBSYS 
    &CELL 
      PERIODIC NONE
      ABC     13.02692800     10.00000000     11.17820000
    &END CELL
    &COORD 
          O      6.51346400      5.00000000      5.29455000
          H      7.27019600      5.00000000      5.88365000
          H      5.75673200      5.00000000      5.88365000
    &END COORD
  &END SUBSYS
&END FORCE_EVAL

&GLOBAL 
  PROJECT H2O_monomer
&END GLOBAL

