&FORCE_EVAL 
  &DFT 
    MULTIPLICITY 1
    CHARGE 0
    &POISSON 
      PERIODIC NONE
      PSOLVER MT
    &END POISSON
  &END DFT
  &SUBSYS 
    &CELL 
      PERIODIC NONE
      ABC     13.02692800     14.87551200     16.25643800
    &END CELL
    &COORD 
          O      6.51346400      6.21887800      9.10322850
          H      7.27019600      6.21887800      9.69232850
          H      5.75673200      6.21887800      9.69232850
          O      6.51346400      8.65663400      7.49582450
          H      6.51346400      7.80910300      7.94456950
          H      6.51346400      8.42950600      6.56410950
    &END COORD
  &END SUBSYS
&END FORCE_EVAL

&GLOBAL 
  PROJECT H2O_dimer_2dot92
&END GLOBAL

