&FORCE_EVAL 
  &DFT 
    MULTIPLICITY 1
    CHARGE 0
    &POISSON 
      PERIODIC NONE
      PSOLVER MT
    &END POISSON
  &END DFT
  &SUBSYS 
    &CELL 
      PERIODIC NONE
      ABC     13.02692800     14.84211800     16.23442000
    &END CELL
    &COORD 
          O      6.51346400      6.21052950      9.08671500
          H      7.27019600      6.21052950      9.67581500
          H      5.75673200      6.21052950      9.67581500
          O      6.51346400      8.63158850      7.49032100
          H      6.51346400      7.78405750      7.93906600
          H      6.51346400      8.40446050      6.55860500
    &END COORD
  &END SUBSYS
&END FORCE_EVAL

&GLOBAL 
  PROJECT H2O_dimer_2dot90
&END GLOBAL

