&FORCE_EVAL 
  &DFT 
    MULTIPLICITY 1
    CHARGE 0
    &POISSON 
      PERIODIC NONE
      PSOLVER MT
    &END POISSON
  &END DFT
  &SUBSYS 
    &CELL 
      PERIODIC NONE
      ABC     13.02692800     12.67151400     14.80317000
    &END CELL
    &COORD 
          O      6.51346400      5.66787850      8.01327750
          H      7.27019600      5.66787850      8.60237750
          H      5.75673200      5.66787850      8.60237750
          O      6.51346400      7.00363550      7.13250850
          H      6.51346400      6.15610350      7.58125350
          H      6.51346400      6.77650750      6.20079250
    &END COORD
  &END SUBSYS
&END FORCE_EVAL

&GLOBAL 
  PROJECT H2O_dimer_1dot60
&END GLOBAL

