&FORCE_EVAL 
  &DFT 
    MULTIPLICITY 1
    CHARGE 0
    &POISSON 
      PERIODIC NONE
      PSOLVER MT
    &END POISSON
  &END DFT
  &SUBSYS 
    &CELL 
      PERIODIC NONE
      ABC     13.02692800     15.67696600     16.78490000
    &END CELL
    &COORD 
          O      6.51346400      6.41924150      9.49957500
          H      7.27019600      6.41924150     10.08867500
          H      5.75673200      6.41924150     10.08867500
          O      6.51346400      9.25772450      7.62794000
          H      6.51346400      8.41019250      8.07668500
          H      6.51346400      9.03059650      6.69622500
    &END COORD
  &END SUBSYS
&END FORCE_EVAL

&GLOBAL 
  PROJECT H2O_dimer_3dot40
&END GLOBAL

