&FORCE_EVAL 
  &DFT 
    MULTIPLICITY 1
    CHARGE 0
    &POISSON 
      PERIODIC NONE
      PSOLVER MT
    &END POISSON
  &END DFT
  &SUBSYS 
    &CELL 
      PERIODIC NONE
      ABC     13.02692800     14.34120800     15.90413200
    &END CELL
    &COORD 
          O      6.51346400      6.08530200      8.83899900
          H      7.27019600      6.08530200      9.42809900
          H      5.75673200      6.08530200      9.42809900
          O      6.51346400      8.25590600      7.40774900
          H      6.51346400      7.40837500      7.85649400
          H      6.51346400      8.02877900      6.47603300
    &END COORD
  &END SUBSYS
&END FORCE_EVAL

&GLOBAL 
  PROJECT H2O_dimer_2dot60
&END GLOBAL

