&FORCE_EVAL 
  &DFT 
    MULTIPLICITY 1
    CHARGE 0
    &POISSON 
      PERIODIC NONE
      PSOLVER MT
    &END POISSON
  &END DFT
  &SUBSYS 
    &CELL 
      PERIODIC NONE
      ABC     13.02692800     14.80872400     16.21240000
    &END CELL
    &COORD 
          O      6.51346400      6.20218100      9.07020000
          H      7.27019600      6.20218100      9.65930000
          H      5.75673200      6.20218100      9.65930000
          O      6.51346400      8.60654300      7.48481500
          H      6.51346400      7.75901200      7.93356000
          H      6.51346400      8.37941500      6.55310000
    &END COORD
  &END SUBSYS
&END FORCE_EVAL

&GLOBAL 
  PROJECT H2O_dimer_2dot88
&END GLOBAL

