&FORCE_EVAL 
  &DFT 
    MULTIPLICITY 1
    CHARGE 0
    &POISSON 
      PERIODIC NONE
      PSOLVER MT
    &END POISSON
  &END DFT
  &SUBSYS 
    &CELL 
      PERIODIC NONE
      ABC     13.02692800     15.17605600     16.45461200
    &END CELL
    &COORD 
          O      6.51346400      6.29401400      9.25185900
          H      7.27019600      6.29401400      9.84095900
          H      5.75673200      6.29401400      9.84095900
          O      6.51346400      8.88204200      7.54536900
          H      6.51346400      8.03451100      7.99411300
          H      6.51346400      8.65491500      6.61365300
    &END COORD
  &END SUBSYS
&END FORCE_EVAL

&GLOBAL 
  PROJECT H2O_dimer_3dot10
&END GLOBAL

