&FORCE_EVAL 
  &DFT 
    MULTIPLICITY 1
    CHARGE 0
    &POISSON 
      PERIODIC NONE
      PSOLVER MT
    &END POISSON
  &END DFT
  &SUBSYS 
    &CELL 
      PERIODIC NONE
      ABC     13.02692800     14.77533000     16.19038200
    &END CELL
    &COORD 
          O      6.51346400      6.19383250      9.05368650
          H      7.27019600      6.19383250      9.64278650
          H      5.75673200      6.19383250      9.64278650
          O      6.51346400      8.58149750      7.47931150
          H      6.51346400      7.73396650      7.92805650
          H      6.51346400      8.35436950      6.54759550
    &END COORD
  &END SUBSYS
&END FORCE_EVAL

&GLOBAL 
  PROJECT H2O_dimer_2dot86
&END GLOBAL

