&FORCE_EVAL 
  &DFT 
    MULTIPLICITY 1
    CHARGE 0
    &POISSON 
      PERIODIC NONE
      PSOLVER MT
    &END POISSON
  &END DFT
  &SUBSYS 
    &CELL 
      PERIODIC NONE
      ABC     13.02692800     14.75863200     16.17937200
    &END CELL
    &COORD 
          O      6.51346400      6.18965800      9.04542900
          H      7.27019600      6.18965800      9.63452900
          H      5.75673200      6.18965800      9.63452900
          O      6.51346400      8.56897400      7.47655900
          H      6.51346400      7.72144300      7.92530400
          H      6.51346400      8.34184700      6.54484300
    &END COORD
  &END SUBSYS
&END FORCE_EVAL

&GLOBAL 
  PROJECT H2O_dimer_2dot85
&END GLOBAL

