&FORCE_EVAL 
  &DFT 
    MULTIPLICITY 1
    CHARGE 0
    &POISSON 
      PERIODIC NONE
      PSOLVER MT
    &END POISSON
  &END DFT
  &SUBSYS 
    &CELL 
      PERIODIC NONE
      ABC     13.02692800     14.67514800     16.12432400
    &END CELL
    &COORD 
          O      6.51346400      6.16878700      9.00414300
          H      7.27019600      6.16878700      9.59324300
          H      5.75673200      6.16878700      9.59324300
          O      6.51346400      8.50636100      7.46279700
          H      6.51346400      7.65883000      7.91154200
          H      6.51346400      8.27923300      6.53108100
    &END COORD
  &END SUBSYS
&END FORCE_EVAL

&GLOBAL 
  PROJECT H2O_dimer_2dot80
&END GLOBAL

