&FORCE_EVAL 
  &DFT 
    MULTIPLICITY 1
    CHARGE 0
    &POISSON 
      PERIODIC NONE
      PSOLVER MT
    &END POISSON
  &END DFT
  &SUBSYS 
    &CELL 
      PERIODIC NONE
      ABC     13.02692800     14.17424000     15.79403400
    &END CELL
    &COORD 
          O      6.51346400      6.04356000      8.75642550
          H      7.27019600      6.04356000      9.34552550
          H      5.75673200      6.04356000      9.34552550
          O      6.51346400      8.13068000      7.38022350
          H      6.51346400      7.28314800      7.82896850
          H      6.51346400      7.90355200      6.44850850
    &END COORD
  &END SUBSYS
&END FORCE_EVAL

&GLOBAL 
  PROJECT H2O_dimer_2dot50
&END GLOBAL

