&FORCE_EVAL 
  &DFT 
    MULTIPLICITY 1
    CHARGE 0
    &POISSON 
      PERIODIC NONE
      PSOLVER MT
    &END POISSON
  &END DFT
  &SUBSYS 
    &CELL 
      PERIODIC NONE
      ABC     13.02692800     14.89220800     16.26744800
    &END CELL
    &COORD 
          O      6.51346400      6.22305200      9.11148600
          H      7.27019600      6.22305200      9.70058600
          H      5.75673200      6.22305200      9.70058600
          O      6.51346400      8.66915600      7.49857700
          H      6.51346400      7.82162500      7.94732200
          H      6.51346400      8.44202800      6.56686200
    &END COORD
  &END SUBSYS
&END FORCE_EVAL

&GLOBAL 
  PROJECT H2O_dimer_2dot93
&END GLOBAL

