&FORCE_EVAL 
  &DFT 
    MULTIPLICITY 1
    CHARGE 0
    &POISSON 
      PERIODIC NONE
      PSOLVER MT
    &END POISSON
  &END DFT
  &SUBSYS 
    &CELL 
      PERIODIC NONE
      ABC     13.02692800     18.68241800     18.76663000
    &END CELL
    &COORD 
          O      6.51346400      7.17060450     10.98587250
          H      7.27019600      7.17060450     11.57497250
          H      5.75673200      7.17060450     11.57497250
          O      6.51346400     11.51181350      8.12337250
          H      6.51346400     10.66428250      8.57211750
          H      6.51346400     11.28468550      7.19165750
    &END COORD
  &END SUBSYS
&END FORCE_EVAL

&GLOBAL 
  PROJECT H2O_dimer_5dot20
&END GLOBAL

