&FORCE_EVAL 
  &DFT 
    MULTIPLICITY 1
    CHARGE 0
    &POISSON 
      PERIODIC NONE
      PSOLVER MT
    &END POISSON
  &END DFT
  &SUBSYS 
    &CELL 
      PERIODIC NONE
      ABC     13.02692800     18.34847800     18.54643800
    &END CELL
    &COORD 
          O      6.51346400      7.08711950     10.82072850
          H      7.27019600      7.08711950     11.40982850
          H      5.75673200      7.08711950     11.40982850
          O      6.51346400     11.26135850      8.06832450
          H      6.51346400     10.41382750      8.51706950
          H      6.51346400     11.03423150      7.13660950
    &END COORD
  &END SUBSYS
&END FORCE_EVAL

&GLOBAL 
  PROJECT H2O_dimer_5dot00
&END GLOBAL

