&FORCE_EVAL 
  &DFT 
    MULTIPLICITY 1
    CHARGE 0
    &POISSON 
      PERIODIC NONE
      PSOLVER MT
    &END POISSON
  &END DFT
  &SUBSYS 
    &CELL 
      PERIODIC NONE
      ABC     13.02692800     15.50999600     16.67480400
    &END CELL
    &COORD 
          O      6.51346400      6.37749900      9.41700300
          H      7.27019600      6.37749900     10.00610300
          H      5.75673200      6.37749900     10.00610300
          O      6.51346400      9.13249700      7.60041700
          H      6.51346400      8.28496600      8.04916100
          H      6.51346400      8.90536900      6.66870100
    &END COORD
  &END SUBSYS
&END FORCE_EVAL

&GLOBAL 
  PROJECT H2O_dimer_3dot30
&END GLOBAL

