&FORCE_EVAL 
  &DFT 
    MULTIPLICITY 1
    CHARGE 0
    &POISSON 
      PERIODIC NONE
      PSOLVER MT
    &END POISSON
  &END DFT
  &SUBSYS 
    &CELL 
      PERIODIC NONE
      ABC     13.02692800     16.34484400     17.22528400
    &END CELL
    &COORD 
          O      6.51346400      6.58621100      9.82986300
          H      7.27019600      6.58621100     10.41896300
          H      5.75673200      6.58621100     10.41896300
          O      6.51346400      9.75863300      7.73803600
          H      6.51346400      8.91110200      8.18678100
          H      6.51346400      9.53150500      6.80632100
    &END COORD
  &END SUBSYS
&END FORCE_EVAL

&GLOBAL 
  PROJECT H2O_dimer_3dot80
&END GLOBAL

