&FORCE_EVAL 
  &DFT 
    MULTIPLICITY 1
    CHARGE 0
    &POISSON 
      PERIODIC NONE
      PSOLVER MT
    &END POISSON
  &END DFT
  &SUBSYS 
    &CELL 
      PERIODIC NONE
      ABC     13.02692800     14.92560200     16.28946800
    &END CELL
    &COORD 
          O      6.51346400      6.23140050      9.12800100
          H      7.27019600      6.23140050      9.71710100
          H      5.75673200      6.23140050      9.71710100
          O      6.51346400      8.69420150      7.50408300
          H      6.51346400      7.84667050      7.95282800
          H      6.51346400      8.46707350      6.57236700
    &END COORD
  &END SUBSYS
&END FORCE_EVAL

&GLOBAL 
  PROJECT H2O_dimer_2dot95
&END GLOBAL

