&FORCE_EVAL 
  &DFT 
    MULTIPLICITY 1
    CHARGE 0
    &POISSON 
      PERIODIC NONE
      PSOLVER MT
    &END POISSON
  &END DFT
  &SUBSYS 
    &CELL 
      PERIODIC NONE
      ABC     13.02692800     18.01454000     18.32624600
    &END CELL
    &COORD 
          O      6.51346400      7.00363500     10.65558450
          H      7.27019600      7.00363500     11.24468450
          H      5.75673200      7.00363500     11.24468450
          O      6.51346400     11.01090500      8.01327650
          H      6.51346400     10.16337400      8.46202150
          H      6.51346400     10.78377700      7.08156150
    &END COORD
  &END SUBSYS
&END FORCE_EVAL

&GLOBAL 
  PROJECT H2O_dimer_4dot80
&END GLOBAL

