$molecule
0    1
    B      0.00000000      0.00000000      0.87888397
    B      0.00000000      0.00000000     -0.87888397
    H      0.00000000      0.97521010      0.00000000
    H      0.00000000     -0.97521010      0.00000000
    H     -1.03964271      0.00000000      1.45232685
    H      1.03964271      0.00000000      1.45232685
    H      1.03964271      0.00000000     -1.45232685
    H     -1.03964271      0.00000000     -1.45232685
$end
   
$rem
mem_static = 200
mem_total  = 7500
exchange = b3lyp
basis = G3Large
max_scf_cycles = 50
scf_convergence = 7
symmetry = false
xc_grid = 000075000302
$end
