$molecule
0    1
    C      0.00000000      0.00000000      0.52734358
    F      1.02798972      0.00000000     -0.26367179
    F     -1.02798972      0.00000000     -0.26367179
$end
   
$rem
mem_static = 200
mem_total  = 7500
exchange = b3lyp
basis = G3Large
max_scf_cycles = 50
scf_convergence = 7
symmetry = false
xc_grid = 000075000302
$end
