$molecule
0    2
    C     -0.34400957     -0.14803959      0.00000000
    H     -0.70650941      0.40111054      0.87821482
    H     -0.78528285     -1.14280052      0.00000000
    H     -0.70650941      0.40111054     -0.87821482
    N      1.09727985     -0.23715832      0.00000000
    H      1.44503139      0.72577736      0.00000000
$end
   
$rem
mem_static = 200
mem_total  = 7500
exchange = b3lyp
basis = G3Large
max_scf_cycles = 50
scf_convergence = 7
symmetry = false
xc_grid = 000075000302
$end
