$molecule
0    1
    F      1.48811385      0.10483207     -0.52485998
    O      0.48398008     -0.38275086      0.52485998
    O     -0.48398008      0.38275086      0.52485998
    F     -1.48811385     -0.10483207     -0.52485998
$end
   
$rem
mem_static = 200
mem_total  = 7500
exchange = b3lyp
basis = G3Large
max_scf_cycles = 50
scf_convergence = 7
symmetry = false
xc_grid = 000075000302
$end
