$molecule
0    1
    O      0.94107969     -0.25381148      0.00000000
    N     -0.26510792     -0.35814917      0.00000000
    H     -0.67597177      0.61196065      0.00000000
$end
   
$rem
mem_static = 200
mem_total  = 7500
exchange = b3lyp
basis = G3Large
max_scf_cycles = 50
scf_convergence = 7
symmetry = false
xc_grid = 000075000302
$end
