$molecule
0    1
    N      0.71663435     -0.06035540      0.23275048
    N     -0.71663435      0.06035540      0.23275048
    H      1.06343693     -0.30618855     -0.68741751
    H      1.08508932      0.85402452      0.45466703
    H     -1.06343693      0.30618855     -0.68741751
    H     -1.08508932     -0.85402452      0.45466703
$end
   
$rem
mem_static = 200
mem_total  = 7500
exchange = b3lyp
basis = G3Large
max_scf_cycles = 50
scf_convergence = 7
symmetry = false
xc_grid = 000075000302
$end
