$molecule
0    1
   Si      0.00000000      0.00000000     -1.17088423
    H     -1.20459977     -0.69547600     -1.68477798
    H      0.00000000      1.39095200     -1.68477798
    H      1.20459977     -0.69547600     -1.68477798
   Si      0.00000000      0.00000000      1.17088423
    H      1.20459977      0.69547600      1.68477798
    H     -1.20459977      0.69547600      1.68477798
    H      0.00000000     -1.39095200      1.68477798
$end
   
$rem
mem_static = 200
mem_total  = 7500
exchange = b3lyp
basis = G3Large
max_scf_cycles = 50
scf_convergence = 7
symmetry = false
xc_grid = 000075000302
$end
