$molecule
0    1
    S      0.00000000      0.00000000      0.48294256
    O      1.23931851      0.00000000     -0.24147128
    O     -1.23931851      0.00000000     -0.24147128
$end
   
$rem
mem_static = 200
mem_total  = 7500
exchange = b3lyp
basis = G3Large
max_scf_cycles = 50
scf_convergence = 7
symmetry = false
xc_grid = 000075000302
$end
