$molecule
0    2
    S     -0.55892300      0.45627944      0.00000000
    H     -0.85785429     -0.86051793      0.00000000
    S      1.41677729      0.40423849      0.00000000
$end
   
$rem
mem_static = 200
mem_total  = 7500
exchange = b3lyp
basis = G3Large
max_scf_cycles = 50
scf_convergence = 7
symmetry = false
xc_grid = 000075000302
$end
