#p b3lyp/6-31G scf=tight

pccp7

0 1
 C   0.   -0.667578   -2.124659
 C   0.   0.667578   -2.124659
 H   0.923621   -1.232253   -2.126185
 H   -0.923621   -1.232253   -2.126185
 H   -0.923621   1.232253   -2.126185
 H   0.923621   1.232253   -2.126185
 C   0.   0.   2.900503
 C   0.   0.   1.69324
 H   0.   0.   0.627352
 H   0.   0.   3.963929

