#p b3lyp/6-31G scf=tight

pccp15

0 1
 C   2.5118997   1.6250148   0.
 C   2.7130094   0.9578537   -1.2082918
 C   3.1177821   -0.3767436   -1.2083647
 C   3.3213848   -1.0437307   0.
 C   3.1177821   -0.3767436   1.2083647
 C   2.7130094   0.9578537   1.2082918
 H   2.2024038   2.6611358   0.
 H   2.551176   1.4736908   -2.14459
 H   3.2702999   -0.8951406   -2.1448379
 H   3.6368139   -2.0781521   0.
 H   3.2702999   -0.8951406   2.1448379
 H   2.551176   1.4736908   2.14459
 H   0.8065245   -0.4358866   0.
 N   -0.1442408   -0.7686927   0.
 C   -0.5161122   -2.089322   0.
 C   -1.8898755   -2.1814495   0.
 C   -2.3932317   -0.847083   0.
 C   -1.2640653   0.0195887   0.
 C   -1.3896004   1.4117668   0.
 C   -2.6726501   1.936645   0.
 C   -3.8054511   1.097479   0.
 C   -3.6798167   -0.2817209   0.
 H   0.2310024   -2.8653173   0.
 H   -2.4585759   -3.0956052   0.
 H   -0.5188733   2.053952   0.
 H   -2.807757   3.0097859   0.
 H   -4.7905991   1.5439372   0.
 H   -4.5580187   -0.9142916   0.

