#p b3lyp 6-311+g(3df,2p) scf=tight nosymm

B_G

0    1
    C      0.59054796      1.43771490     -0.51202439
    H     -0.34439697      1.99735785     -0.55582939
    H      0.70364595      0.90550893     -1.45472332
    H      1.40578590      2.15594184     -0.44092540
    C      0.59054796      0.48354596      0.67648852
    H      1.52076789     -0.08976199      0.68616152
    H      0.57550996      1.06333892      1.60085245
    C     -0.59054796     -0.48354596      0.67648852
    H     -1.52076789      0.08976199      0.68616152
    H     -0.57550996     -1.06333892      1.60085245
    C     -0.59054796     -1.43771490     -0.51202439
    H      0.34439697     -1.99735785     -0.55582939
    H     -1.40578590     -2.15594184     -0.44092540
    H     -0.70364595     -0.90550893     -1.45472332
 
 
 
