#p b3lyp 6-311+g(3df,2p) scf=tight nosymm

H_g+x-g-

0    1
    C     -1.97658211      1.06208392     -0.04714970
    C     -1.92425511     -0.45877297     -0.12792669
    C     -0.52208921     -1.02742593     -0.34070968
    C      0.46474572     -0.67903195      0.78337924
    C      1.36891565      0.51772396      0.48269526
    C      2.43708457      0.19433299     -0.55565466
    H     -1.55400514      1.51459789     -0.94474763
    H     -1.41801715      1.43623790      0.80945324
    H     -3.00309903      1.41228890      0.05169830
    H     -2.56996606     -0.79655494     -0.94076463
    H     -2.33763508     -0.88283994      0.79039024
    H     -0.13275624     -0.67100195     -1.29779661
    H     -0.60559021     -2.11117985     -0.43411967
    H      1.10683867     -1.53805389      0.99101323
    H     -0.09932224     -0.49482696      1.70135918
    H      1.85653261      0.83972194      1.40471220
    H      0.76753369      1.35994090      0.13912729
    H      3.06362853      1.06007592     -0.76485864
    H      1.99492861     -0.12764599     -1.49760159
    H      3.08310953     -0.60966996     -0.20249869
 
 
 
