#p b3lyp 6-311+g(3df,2p) scf=tight nosymm

H_ggg

0    1
    C     -0.76059194      2.19175684     -0.48828376
    C     -1.32079990      0.78723694     -0.29749578
    C     -0.76059194      0.07828299      0.93396113
    C      0.76059194     -0.07828299      0.93396113
    C      1.32079990     -0.78723694     -0.29749578
    C      0.76059194     -2.19175684     -0.48828376
    H      0.31029098      2.17292484     -0.68516775
    H     -0.92241493      2.79615480      0.40495517
    H     -1.24028191      2.69745180     -1.32490370
    H     -1.12386592      0.19058699     -1.19039071
    H     -2.40673483      0.84253694     -0.20398079
    H     -1.22818291     -0.90381893      1.02564113
    H     -1.05354392      0.63837195      1.82566507
    H      1.05354392     -0.63837195      1.82566507
    H      1.22818291      0.90381893      1.02564113
    H      2.40673483     -0.84253694     -0.20398079
    H      1.12386592     -0.19058699     -1.19039071
    H      1.24028191     -2.69745180     -1.32490370
    H     -0.31029098     -2.17292484     -0.68516775
    H      0.92241493     -2.79615480      0.40495517
 
 
 
