#p b3lyp 6-311+g(3df,2p) scf=tight nosymm

H_gtg

0    1
    C      0.03378100      2.51316482      0.68311375
    C      0.69898095      1.82824087     -0.50524416
    C      0.69898095      0.30513798     -0.40083117
    C     -0.69898095     -0.30513798     -0.40083117
    C     -0.69898095     -1.82824087     -0.50524416
    C     -0.03378100     -2.51316482      0.68311375
    H      0.50038096      2.19975184      1.61772568
    H     -1.02583193      2.27157783      0.74346175
    H      0.12105199      3.59633774      0.61360576
    H      1.72888687      2.17915584     -0.59037016
    H      0.19407699      2.12345885     -1.42817910
    H      1.23305791      0.01441800      0.50682076
    H      1.26168391     -0.11310099     -1.24010311
    H     -1.26168391      0.11310099     -1.24010311
    H     -1.23305791     -0.01441800      0.50682076
    H     -0.19407699     -2.12345885     -1.42817910
    H     -1.72888687     -2.17915584     -0.59037016
    H     -0.12105199     -3.59633774      0.61360576
    H     -0.50038096     -2.19975184      1.61772568
    H      1.02583193     -2.27157783      0.74346175
 
 
 
