$molecule
0 1
C     -0.19367169    -1.37795628    -1.95
H     -0.34398821    -2.44744445    -1.95
C     -1.29018099    -0.52125353    -1.95
H     -2.29154317    -0.92581969    -1.95
C     -1.09650930     0.85670275    -1.95
H     -1.94755496     1.52162475    -1.95
C      0.19367169     1.37795628    -1.95
H      0.34398821     2.44744445    -1.95
C      1.29018099     0.52125353    -1.95
H      2.29154317     0.92581969    -1.95
C      1.09650930    -0.85670275    -1.95
H      1.94755496    -1.52162475    -1.95
C      1.29018099     0.52125353     1.95
H      2.29154317     0.92581969     1.95
C      0.19367169     1.37795628     1.95
H      0.34398821     2.44744445     1.95
C     -1.09650930     0.85670275     1.95
H     -1.94755496     1.52162475     1.95
C     -1.29018099    -0.52125353     1.95
H     -2.29154317    -0.92581969     1.95
C     -0.19367169    -1.37795628     1.95
H     -0.34398821    -2.44744445     1.95
C      1.09650930    -0.85670275     1.95
H      1.94755496    -1.52162475     1.95
$end
   
$rem
mem_static = 200
mem_total  = 7500
exchange = b3lyp
basis = 6-311+g(3df,2p)
scf_convergence = 7
symmetry = false
xc_grid = 000075000302
$end
