$molecule
0  1 
 Cl   0.00000     0.00000   0.00000
 H    1.27907275  0.00000   0.00000
$end
   
$rem
mem_static = 200
mem_total  = 7500
exchange = b3lyp
basis = 6-311+g(3df,2p)
scf_convergence = 7
symmetry = false
xc_grid = 000075000302
$end
