$molecule
0  1 
      C          -0.047882    1.151506    0.000000
      S          -0.047882   -0.664959    0.000000
      H           1.284337   -0.821047    0.000000
      H          -1.094713    1.456621    0.000000
      H           0.431885    1.547369    0.893710
      H           0.431885    1.547369   -0.893710
$end
   
$rem
mem_static = 200
mem_total  = 7500
exchange = b3lyp
basis = 6-311+g(3df,2p)
scf_convergence = 7
symmetry = false
xc_grid = 000075000302
$end
