$molecule
0   1
      C               0.000000    1.395671   -0.617158
      C              -1.208686    0.697835   -0.617158
      C              -1.208686   -0.697835   -0.617158
      C              -0.000000   -1.395671   -0.617158
      C               1.208686   -0.697835   -0.617158
      C               1.208686    0.697835   -0.617158
      H               0.000000    2.479876   -0.616998
      H              -2.147636    1.239938   -0.616998
      H              -2.147636   -1.239938   -0.616998
      H              -0.000000   -2.479876   -0.616998
      H               2.147636   -1.239938   -0.616998
      H               2.147636    1.239938   -0.616998
$end
   
$rem
mem_static = 200
mem_total  = 7500
exchange = b3lyp
basis = 6-311+g(3df,2p)
scf_convergence = 7
symmetry = false
xc_grid = 000075000302
$end
