$molecule
0  1 
 O     0.000000     0.000000     0.000000
 H     0.000000     0.000000     0.961831
 H     0.933579     0.000000    -0.231409
$end
   
$rem
mem_static = 200
mem_total  = 7500
exchange = b3lyp
basis = 6-311+g(3df,2p)
scf_convergence = 7
symmetry = false
xc_grid = 000075000302
$end
