$molecule
0   1
     Ne                 0.000000    0.000000    2.600194
      C                 0.000000    1.395663   -0.619351
      C                -1.208680    0.697831   -0.619351
      C                -1.208680   -0.697831   -0.619351
      C                -0.000000   -1.395663   -0.619351
      C                 1.208680   -0.697831   -0.619351
      C                 1.208680    0.697831   -0.619351
      H                 0.000000    2.480037   -0.617549
      H                -2.147775    1.240018   -0.617549
      H                -2.147775   -1.240018   -0.617549
      H                -0.000000   -2.480037   -0.617549
      H                 2.147775   -1.240018   -0.617549
      H                 2.147775    1.240018   -0.617549
$end
   
$rem
mem_static = 200
mem_total  = 7500
exchange = b3lyp
basis = 6-311+g(3df,2p)
scf_convergence = 7
symmetry = false
xc_grid = 000075000302
$end
