$molecule
0   1
      C                 -0.412546    1.678175   -0.000000
      C                  0.412546    2.561627   -0.000000
      H                 -1.132026    0.890809   -0.000000
      H                  1.134651    3.345770   -0.000000
      C                  0.412546   -1.678175   -0.000000
      C                 -0.412546   -2.561627   -0.000000
      H                  1.132026   -0.890809   -0.000000
      H                 -1.134651   -3.345770   -0.000000
$end
   
$rem
mem_static = 200
mem_total  = 7500
exchange = b3lyp
basis = 6-311+g(3df,2p)
scf_convergence = 7
symmetry = false
xc_grid = 000075000302
$end
