$molecule
0  1 
      C              -.134702     .401251    -.000249
      O             -1.134262    -.264582     .000069
      O              1.118680    -.091075     .000056
      H              -.107617    1.495465     .000513
      H              1.040484   -1.057714    -.000020
$end
   
$rem
mem_static = 200
mem_total  = 7500
exchange = b3lyp
basis = 6-311+g(3df,2p)
scf_convergence = 7
symmetry = false
xc_grid = 000075000302
$end
