$molecule
0 1
C      1.391500000000    -0.000000000000     2.495750000000
H      2.471500000000    -0.000000000000     2.495750000000
C      0.695750000000     1.205074349366     2.495750000000
H      1.235750000000     2.140381785453     2.495750000000
C      0.695750000000    -1.205074349366     2.495750000000
H      1.235750000000    -2.140381785453     2.495750000000
C     -0.695750000000     1.205074349366     2.495750000000
H     -1.235750000000     2.140381785453     2.495750000000
C     -0.695750000000    -1.205074349366     2.495750000000
H     -1.235750000000    -2.140381785453     2.495750000000
C     -1.391500000000    -0.000000000000     2.495750000000
H     -2.471500000000    -0.000000000000     2.495750000000
$end
   
$rem
mem_static = 200
mem_total  = 7500
exchange = b3lyp
basis = 6-311+g(3df,2p)
scf_convergence = 7
symmetry = false
xc_grid = 000075000302
$end
