$molecule
0  1 
      C                  0.000004   -0.604204    0.000000
      C                  0.000004    0.604198    0.000000
      H                  0.006795   -1.670128    0.000000
      H                 -0.006839    1.670163   -0.000000
$end
   
$rem
mem_static = 200
mem_total  = 7500
exchange = b3lyp
basis = 6-311+g(3df,2p)
scf_convergence = 7
symmetry = false
xc_grid = 000075000302
$end
