#p b3lyp/6-31G scf=tight

H2O_3dot80

0  1
 O     0.000000     0.000000     1.000000
 H     0.756732     0.000000     1.589100
 H    -0.756732     0.000000     1.589100
 O     0.000000     3.172422    -1.091827
 H     0.000000     2.324891    -0.643082
 H     0.000000     2.945294    -2.023542

