#p b3lyp/6-31G scf=tight

H2O_2dot86

0  1
 O     0.000000     0.000000     1.000000
 H     0.756732     0.000000     1.589100
 H    -0.756732     0.000000     1.589100
 O     0.000000     2.387665    -0.574375
 H     0.000000     1.540134    -0.125630
 H     0.000000     2.160537    -1.506091

