#p b3lyp/6-31G scf=tight

H2O_2dot91

0  1
 O     0.000000     0.000000     1.000000
 H     0.756732     0.000000     1.589100
 H    -0.756732     0.000000     1.589100
 O     0.000000     2.429407    -0.601899
 H     0.000000     1.581876    -0.153154
 H     0.000000     2.202280    -1.533615

