#p b3lyp/6-31G scf=tight

H2O_5dot20

0  1
 O     0.000000     0.000000     1.000000
 H     0.756732     0.000000     1.589100
 H    -0.756732     0.000000     1.589100
 O     0.000000     4.341209    -1.862500
 H     0.000000     3.493678    -1.413755
 H     0.000000     4.114081    -2.794215
