#p b3lyp/6-31G scf=tight

H2O_2dot90

0  1
 O     0.000000     0.000000     1.000000
 H     0.756732     0.000000     1.589100
 H    -0.756732     0.000000     1.589100
 O     0.000000     2.421059    -0.596394
 H     0.000000     1.573528    -0.147649
 H     0.000000     2.193931    -1.528110

