#p b3lyp/6-31G scf=tight

H2O_2dot88

0  1
 O     0.000000     0.000000     1.000000
 H     0.756732     0.000000     1.589100
 H    -0.756732     0.000000     1.589100
 O     0.000000     2.404362    -0.585385
 H     0.000000     1.556831    -0.136640
 H     0.000000     2.177234    -1.517100

