#p b3lyp/6-31G scf=tight

H2O_2dot85

0  1
 O     0.000000     0.000000     1.000000
 H     0.756732     0.000000     1.589100
 H    -0.756732     0.000000     1.589100
 O     0.000000     2.379316    -0.568870
 H     0.000000     1.531785    -0.120125
 H     0.000000     2.152189    -1.500586

