#p b3lyp/6-31G scf=tight

H2O_5dot00

0  1
 O     0.000000     0.000000     1.000000
 H     0.756732     0.000000     1.589100
 H    -0.756732     0.000000     1.589100
 O     0.000000     4.174239    -1.752404
 H     0.000000     3.326708    -1.303659
 H     0.000000     3.947112    -2.684119

