#p b3lyp/6-31G scf=tight

H2O_2dot95

0  1
 O     0.000000     0.000000     1.000000
 H     0.756732     0.000000     1.589100
 H    -0.756732     0.000000     1.589100
 O     0.000000     2.462801    -0.623918
 H     0.000000     1.615270    -0.175173
 H     0.000000     2.235673    -1.555634

