#p b3lyp/6-31G scf=tight

H2O_2dot50

0  1
 O     0.000000     0.000000     1.000000
 H     0.756732     0.000000     1.589100
 H    -0.756732     0.000000     1.589100
 O     0.000000     2.087120    -0.376202
 H     0.000000     1.239588     0.072543
 H     0.000000     1.859992    -1.307917

