#p b3lyp/6-31G scf=tight

H2O_2dot93

0  1
 O     0.000000     0.000000     1.000000
 H     0.756732     0.000000     1.589100
 H    -0.756732     0.000000     1.589100
 O     0.000000     2.446104    -0.612909
 H     0.000000     1.598573    -0.164164
 H     0.000000     2.218976    -1.544624

