#p b3lyp/6-31G scf=tight

H2O_2dot92

0  1
 O     0.000000     0.000000     1.000000
 H     0.756732     0.000000     1.589100
 H    -0.756732     0.000000     1.589100
 O     0.000000     2.437756    -0.607404
 H     0.000000     1.590225    -0.158659
 H     0.000000     2.210628    -1.539119

