#p b3lyp/6-31G scf=tight

H2O_3dot40

0  1
 O     0.000000     0.000000     1.000000
 H     0.756732     0.000000     1.589100
 H    -0.756732     0.000000     1.589100
 O     0.000000     2.838483    -0.871635
 H     0.000000     1.990951    -0.422890
 H     0.000000     2.611355    -1.803350
