#p b3lyp/6-31G scf=tight

H2O_4dot60

0  1
 O     0.000000     0.000000     1.000000
 H     0.756732     0.000000     1.589100
 H    -0.756732     0.000000     1.589100
 O     0.000000     3.840300    -1.532211
 H     0.000000     2.992769    -1.083467
 H     0.000000     3.613172    -2.463927
