#p b3lyp/6-31G scf=tight

H2O_3dot60

0  1
 O     0.000000     0.000000     1.000000
 H     0.756732     0.000000     1.589100
 H    -0.756732     0.000000     1.589100
 O     0.000000     3.005452    -0.981731
 H     0.000000     2.157921    -0.532986
 H     0.000000     2.778325    -1.913446

