#p b3lyp/6-31G scf=tight

H2O_3dot30

0  1
 O     0.000000     0.000000     1.000000
 H     0.756732     0.000000     1.589100
 H    -0.756732     0.000000     1.589100
 O     0.000000     2.754998    -0.816586
 H     0.000000     1.907467    -0.367842
 H     0.000000     2.527870    -1.748302

