#p b3lyp/6-31G scf=tight

H2O_2dot00

0  1
 O     0.000000     0.000000     1.000000
 H     0.756732     0.000000     1.589100
 H    -0.756732     0.000000     1.589100
 O     0.000000     1.669696    -0.100961
 H     0.000000     0.822164     0.347783
 H     0.000000     1.442568    -1.032677

