#p b3lyp/6-31G scf=tight

H2O_3dot20

0  1
 O     0.000000     0.000000     1.000000
 H     0.756732     0.000000     1.589100
 H    -0.756732     0.000000     1.589100
 O     0.000000     2.671513    -0.761538
 H     0.000000     1.823982    -0.312794
 H     0.000000     2.444385    -1.693254

