#p b3lyp/6-31G scf=tight

H2O_2dot40

0  1
 O     0.000000     0.000000     1.000000
 H     0.756732     0.000000     1.589100
 H    -0.756732     0.000000     1.589100
 O     0.000000     2.003635    -0.321154
 H     0.000000     1.156104     0.127591
 H     0.000000     1.776507    -1.252869

