#p b3lyp/6-31G scf=tight

H2O_2dot94

0  1
 O     0.000000     0.000000     1.000000
 H     0.756732     0.000000     1.589100
 H    -0.756732     0.000000     1.589100
 O     0.000000     2.454453    -0.618413
 H     0.000000     1.606921    -0.169669
 H     0.000000     2.227325    -1.550129

