#p b3lyp/6-31G scf=tight

H2O_4dot20

0  1
 O     0.000000     0.000000     1.000000
 H     0.756732     0.000000     1.589100
 H    -0.756732     0.000000     1.589100
 O     0.000000     3.506361    -1.312019
 H     0.000000     2.658830    -0.863274
 H     0.000000     3.279233    -2.243735

