#p b3lyp/6-31G scf=tight

H2O_4dot80

0  1
 O     0.000000     0.000000     1.000000
 H     0.756732     0.000000     1.589100
 H    -0.756732     0.000000     1.589100
 O     0.000000     4.007270    -1.642308
 H     0.000000     3.159739    -1.193563
 H     0.000000     3.780142    -2.574023

