#p b3lyp/6-31G scf=tight

H2O_5dot40

0  1
 O     0.000000     0.000000     1.000000
 H     0.756732     0.000000     1.589100
 H    -0.756732     0.000000     1.589100
 O     0.000000     4.508178    -1.972596
 H     0.000000     3.660647    -1.523851
 H     0.000000     4.281051    -2.904312
