#p b3lyp/6-31G scf=tight

H2O_2dot20

0  1
 O     0.000000     0.000000     1.000000
 H     0.756732     0.000000     1.589100
 H    -0.756732     0.000000     1.589100
 O     0.000000     1.836665    -0.211058
 H     0.000000     0.989134     0.237687
 H     0.000000     1.609538    -1.142773

