#p b3lyp/6-31G scf=tight

H2O_2dot70

0  1
 O     0.000000     0.000000     1.000000
 H     0.756732     0.000000     1.589100
 H    -0.756732     0.000000     1.589100
 O     0.000000     2.254089    -0.486298
 H     0.000000     1.406558    -0.037553
 H     0.000000     2.026961    -1.418014
