#p b3lyp/6-31G scf=tight

H2O_3dot10

0  1
 O     0.000000     0.000000     1.000000
 H     0.756732     0.000000     1.589100
 H    -0.756732     0.000000     1.589100
 O     0.000000     2.588028    -0.706490
 H     0.000000     1.740497    -0.257746
 H     0.000000     2.360901    -1.638206

