#p b3lyp/6-31G scf=tight

H2O_4dot40

0  1
 O     0.000000     0.000000     1.000000
 H     0.756732     0.000000     1.589100
 H    -0.756732     0.000000     1.589100
 O     0.000000     3.673331    -1.422115
 H     0.000000     2.825799    -0.973371
 H     0.000000     3.446203    -2.353831

