#p b3lyp/6-31G scf=tight

H2O_2dot89

0  1
 O     0.000000     0.000000     1.000000
 H     0.756732     0.000000     1.589100
 H    -0.756732     0.000000     1.589100
 O     0.000000     2.412710    -0.590889
 H     0.000000     1.565179    -0.142145
 H     0.000000     2.185583    -1.522605

