#p b3lyp/6-31G scf=tight

H2O_4dot00

0  1
 O     0.000000     0.000000     1.000000
 H     0.756732     0.000000     1.589100
 H    -0.756732     0.000000     1.589100
 O     0.000000     3.339391    -1.201923
 H     0.000000     2.491860    -0.753178
 H     0.000000     3.112264    -2.133639

