#p b3lyp/6-31G scf=tight

H2O_2dot87

0  1
 O     0.000000     0.000000     1.000000
 H     0.756732     0.000000     1.589100
 H    -0.756732     0.000000     1.589100
 O     0.000000     2.396013    -0.579880
 H     0.000000     1.548482    -0.131135
 H     0.000000     2.168886    -1.511595

