#p b3lyp/6-31G scf=tight

H2O_3dot00

0  1
 O     0.000000     0.000000     1.000000
 H     0.756732     0.000000     1.589100
 H    -0.756732     0.000000     1.589100
 O     0.000000     2.504544    -0.651442
 H     0.000000     1.657012    -0.202698
 H     0.000000     2.277416    -1.583158

