#p b3lyp/6-31G scf=tight

H2O_1dot80

0  1
 O     0.000000     0.000000     1.000000
 H     0.756732     0.000000     1.589100
 H    -0.756732     0.000000     1.589100
 O     0.000000     1.502726     0.009135
 H     0.000000     0.655195     0.457879
 H     0.000000     1.275598    -0.922581

