#p b3lyp/6-31G scf=tight

H2O_monomer

0  1
 O     0.000000     0.000000     1.000000
 H     0.756732     0.000000     1.589100
 H    -0.756732     0.000000     1.589100

