#p b3lyp/6-31G scf=tight

H2O_1dot60

0  1
 O     0.000000     0.000000     1.000000
 H     0.756732     0.000000     1.589100
 H    -0.756732     0.000000     1.589100
 O     0.000000     1.335757     0.119231
 H     0.000000     0.488225     0.567976
 H     0.000000     1.108629    -0.812485

