#p b3lyp/6-31G scf=tight

H2O_2dot80

0  1
 O     0.000000     0.000000     1.000000
 H     0.756732     0.000000     1.589100
 H    -0.756732     0.000000     1.589100
 O     0.000000     2.337574    -0.541346
 H     0.000000     1.490043    -0.092601
 H     0.000000     2.110446    -1.473062

