#p b3lyp/6-31G scf=tight

H2O_2dot60

0  1
 O     0.000000     0.000000     1.000000
 H     0.756732     0.000000     1.589100
 H    -0.756732     0.000000     1.589100
 O     0.000000     2.170604    -0.431250
 H     0.000000     1.323073     0.017495
 H     0.000000     1.943477    -1.362966

