&FORCE_EVAL 
  &DFT 
    MULTIPLICITY 1
    CHARGE 0
    &POISSON 
      PERIODIC NONE
      PSOLVER MT
    &END POISSON
  &END DFT
  &SUBSYS 
    &CELL 
      PERIODIC NONE
      ABC     20.67898000     21.09706000     19.98186000
    &END CELL
    &COORD 
          O      8.38164500     11.44895500     11.87270500
          H      8.24131500     10.49827500     11.59645500
          H      7.66974500     11.65257500     12.48639500
          O     11.80878500     12.61589500     10.25242500
          H     12.40093500     13.32279500     10.52453500
          H     11.60431500     12.08859500     11.08416500
          O     11.13373500     11.27356500     12.37407500
          H     11.23084500     10.30515500     12.30186500
          H     10.16601500     11.40414500     12.39226500
          O      9.02265500     12.77653500      9.43281500
          H      8.63101500     12.40378500     10.24220500
          H      9.94240500     12.95514500      9.68496500
          O     12.23790500     10.81867500      8.28563500
          H     13.00923500     11.04412500      7.75766500
          H     12.17623500     11.50918500      8.98877500
          O      8.93781500      8.51490500      8.49389500
          H      8.47460500      7.99498500      7.83042500
          H      9.07529500      9.42245500      8.08520500
          O      9.46115500     10.86410500      7.49546500
          H     10.43115500     10.89951500      7.52794500
          H      9.18610500     11.56847500      8.12554500
          O     11.60350500      8.25361500      9.35792500
          H     11.97683500      9.07651500      8.99525500
          H     10.72412500      8.18573500      8.93976500
          O     10.92243500      8.50918500     11.87971500
          H     11.24069500      8.39253500     10.93876500
          H     11.29372500      7.77426500     12.37672500
          O      8.19962500      8.91685500     11.18824500
          H      9.05459500      8.60036500     11.53100500
          H      8.26436500      8.75879500     10.22745500
    &END COORD
  &END SUBSYS
&END FORCE_EVAL

&GLOBAL 
  PROJECT H2O_10-Prism-2
&END GLOBAL

