&FORCE_EVAL 
  &DFT 
    MULTIPLICITY 1
    CHARGE 0
    &POISSON 
      PERIODIC NONE
      PSOLVER MT
    &END POISSON
  &END DFT
  &SUBSYS 
    &CELL 
      PERIODIC NONE
      ABC     17.93984000     21.00388000     17.93004000
    &END CELL
    &COORD 
          O     10.71288000     10.70526000      7.66671000
          H     10.95488000     10.74651000      8.61607000
          H     10.27492000      9.84190000      7.61767000
          O      6.98496000     10.49086000      8.77733000
          H      7.34214000     11.12493000      8.13316000
          H      7.07080000     10.97311000      9.61163000
          O     10.64984000     10.47703000     10.45637000
          H     10.13045000      9.68741000     10.23972000
          H      9.98522000     11.15379000     10.66350000
          O      8.50191000     12.44081000     10.43681000
          H      8.44056000     13.25291000     10.94753000
          H      8.63507000     12.70565000      9.50459000
          O      8.73956000     12.45773000      7.68497000
          H      9.51940000     11.84046000      7.58412000
          H      8.80871000     13.10979000      6.98251000
          O      9.03235000      8.66502000      8.86137000
          H      8.21972000      9.22039000      8.83231000
          H      8.73554000      7.75097000      8.86494000
    &END COORD
  &END SUBSYS
&END FORCE_EVAL

&GLOBAL 
  PROJECT H2O_6-Prism
&END GLOBAL

