&FORCE_EVAL 
  &DFT 
    MULTIPLICITY 1
    CHARGE 0
    &POISSON 
      PERIODIC NONE
      PSOLVER MT
    &END POISSON
  &END DFT
  &SUBSYS 
    &CELL 
      PERIODIC NONE
      ABC     17.48286000     17.43406000     13.55938000
    &END CELL
    &COORD 
          O      7.33865500     10.01859500      6.25338500
          H      8.29390500     10.22307500      6.37194500
          H      6.87071500     10.57554500      6.88166500
          O      7.50205500      7.31478500      6.63482500
          H      7.31437500      8.27098500      6.49740500
          H      7.10115500      6.85851500      5.88984500
          O     10.21996500      7.51536500      6.85380500
          H      9.25977500      7.31459500      6.77560500
          H     10.51025500      7.09800500      7.66953500
          O     10.03358500     10.23749500      6.66086500
          H     10.22609500      9.27738500      6.75858500
          H     10.61214500     10.55148500      5.96045500
    &END COORD
  &END SUBSYS
&END FORCE_EVAL

&GLOBAL 
  PROJECT H2O_4-Cyclic
&END GLOBAL

