&FORCE_EVAL 
  &DFT 
    MULTIPLICITY 1
    CHARGE 0
    &POISSON 
      PERIODIC NONE
      PSOLVER MT
    &END POISSON
  &END DFT
  &SUBSYS 
    &CELL 
      PERIODIC NONE
      ABC     26.44014000     26.06288000     20.98354000
    &END CELL
    &COORD 
          O      9.86886500     15.73908000      9.50285500
          H      9.11003500     16.21145000      9.14718500
          H      9.62245500     14.77614000      9.49689500
          O     16.37561500     12.09476000     10.40927500
          H     16.21453500     12.04338000      9.42674500
          H     17.33010500     12.09059000     10.52705500
          O     14.36585500     13.92307000     11.04380500
          H     13.76328500     13.20179000     11.33773500
          H     15.23703500     13.48964000     10.97460500
          O     12.49078500     16.25370000      8.46159500
          H     12.85615500     16.51269000      9.32244500
          H     11.54816500     16.11217000      8.65895500
          O     10.35224500     12.96161000     12.45352500
          H     10.50441500     13.94526000     12.45157500
          H      9.82828500     12.77363000     13.23765500
          O     14.58400500      9.81700000     10.82164500
          H     13.88772500     10.31022000     11.29059500
          H     15.32669500     10.44460000     10.80367500
          O     13.65708500      9.88767000      8.28251500
          H     13.98914500      9.75378000      9.20839500
          H     13.62647500      9.01572000      7.87778500
          O     12.69389500     11.79457000     11.50908500
          H     12.29243500     11.75692000     10.61236500
          H     11.94472500     12.06111000     12.07383500
          O     13.60181500     13.73261000      8.33337500
          H     13.22352500     14.62022000      8.14483500
          H     13.90774500     13.83142000      9.25612500
          O     13.27061500     16.39975000     11.30498500
          H     13.82362500     17.04716000     11.75179500
          H     13.78387500     15.56162000     11.29076500
          O      9.29729500     13.13257000      9.72721500
          H      9.97758500     12.59808000      9.27969500
          H      9.46330500     12.96525000     10.67077500
          O     10.67826500     15.60098000     12.23118500
          H     11.59501500     15.90226000     12.10287500
          H     10.26446500     15.79373000     11.36978500
          O     15.69313500     11.93021000      7.83454500
          H     15.07819500     12.68182000      7.74588500
          H     15.10325500     11.15736000      7.79242500
          O     11.69266500     11.83485000      8.92721500
          H     12.08427500     11.02607000      8.55383500
          H     12.28839500     12.54850000      8.60458500
    &END COORD
  &END SUBSYS
&END FORCE_EVAL

&GLOBAL 
  PROJECT H2O_14-Pr2444
&END GLOBAL

