&FORCE_EVAL 
  &DFT 
    MULTIPLICITY 1
    CHARGE 0
    &POISSON 
      PERIODIC NONE
      PSOLVER MT
    &END POISSON
  &END DFT
  &SUBSYS 
    &CELL 
      PERIODIC NONE
      ABC     29.77082000     24.66982000     23.01788000
    &END CELL
    &COORD 
          O     18.95901500     13.35401500     10.77331000
          H     18.90073500     12.79164500     11.59438000
          H     19.82811500     13.76542500     10.78001000
          O     14.80053500     10.17721500     12.14329000
          H     14.37939500     10.49751500     11.31918000
          H     15.66258500      9.82957500     11.85046000
          O     13.43930500     14.91745500      8.88232000
          H     13.12760500     15.57589500      8.25447000
          H     13.70038500     15.41744500      9.70302000
          O     16.31735500     14.23075500     11.05580000
          H     17.28999500     14.21994500     10.99907000
          H     16.03348500     13.73759500     10.25702000
          O     15.48818500     12.89448500      8.74041000
          H     14.89626500     13.61845500      8.47195000
          H     14.87842500     12.16539500      8.96118000
          O     11.41521500     11.75889500     13.87647000
          H     11.81963500     10.86117500     13.72687000
          H     11.04349500     11.73196500     14.76341000
          O     18.53955500     11.77099500     12.84733000
          H     18.28119500     10.94067500     12.40907000
          H     17.71292500     12.07832500     13.26193000
          O     17.95536500     11.31361500      9.05749000
          H     18.46035500     12.01938500      9.50106000
          H     17.18670500     11.78003500      8.69298000
          O     13.60571500     11.10391500      9.78039000
          H     12.99850500     11.83311500     10.04840000
          H     13.00638500     10.34674500      9.66916000
          O      9.94270500     11.39423500     11.39483000
          H     10.20216500     11.50288500     12.32642000
          H     10.40723500     12.12970500     10.95963000
          O     17.39587500      9.72584500     11.15989000
          H     17.55639500     10.25275500     10.33233000
          H     17.76621500      8.85356500     10.99357000
          O     14.16878500     16.00236500     11.20365000
          H     13.66104500     15.57328500     11.90988000
          H     15.04560500     15.57658500     11.25722000
          O     12.38875500      9.33949500     13.28989000
          H     12.00779500      9.11978500     12.42248000
          H     13.33408500      9.45838500     13.08455000
          O     13.13537500     13.83425500     12.98794000
          H     14.01969500     13.48462500     13.20917000
          H     12.52029500     13.24623500     13.46384000
          O     11.47410500      9.34711500     10.51674000
          H     10.94408500      8.66745500     10.08981000
          H     10.83970500     10.06299500     10.78307000
          O     11.97223500     13.15967500     10.53663000
          H     12.23747500     13.83011500      9.88138000
          H     12.39340500     13.43754500     11.37900000
          O     15.73560500     12.60814500     13.25457000
          H     15.39888500     11.75041500     12.92762000
          H     15.94783500     13.12661500     12.45307000
    &END COORD
  &END SUBSYS
&END FORCE_EVAL

&GLOBAL 
  PROJECT H2O_17-Pr454
&END GLOBAL

