&FORCE_EVAL 
  &DFT 
    MULTIPLICITY 1
    CHARGE 0
    &POISSON 
      PERIODIC NONE
      PSOLVER MT
    &END POISSON
  &END DFT
  &SUBSYS 
    &CELL 
      PERIODIC NONE
      ABC     19.35174000     16.47170000     20.60558000
    &END CELL
    &COORD 
          O      7.35194500      8.76739500     12.13447500
          H      7.33793500      9.26784500     12.95418500
          H      7.82048500      9.32264500     11.47423500
          O      8.85313500      6.61792500     11.22597500
          H      8.26304500      7.22835500     11.71149500
          H      9.73369500      7.00962500     11.34347500
          O     11.18950500      8.27428500     10.81083500
          H     11.42345500      7.82480500      9.96686500
          H     12.01380500      8.40783500     11.28675500
          O      8.63424500      7.26656500      8.66676500
          H      7.92366500      6.81293500      8.20448500
          H      8.61001500      6.94177500      9.61084500
          O      8.85910500      9.85377500     10.08792500
          H      8.61336500      9.22280500      9.39404500
          H      9.74300500      9.55344500     10.35633500
          O     11.35265500      6.90538500      8.45861500
          H     11.73573500      7.25968500      7.65139500
          H     10.38027500      6.94126500      8.33428500
    &END COORD
  &END SUBSYS
&END FORCE_EVAL

&GLOBAL 
  PROJECT H2O_6-Cage
&END GLOBAL

