&FORCE_EVAL 
  &DFT 
    MULTIPLICITY 1
    CHARGE 0
    &POISSON 
      PERIODIC NONE
      PSOLVER MT
    &END POISSON
  &END DFT
  &SUBSYS 
    &CELL 
      PERIODIC NONE
      ABC     22.22772000     24.67184000     22.04630000
    &END CELL
    &COORD 
          O     11.48192000     15.40852000     10.45274500
          H     11.55526000     14.55306000      9.99797500
          H     10.52263000     15.53835000     10.55824500
          O      8.31503000      9.93999000     10.20922500
          H      8.55755000      9.55090000     11.06801500
          H      8.23738000     10.89068000     10.41253500
          O     13.23580000     11.33268000     11.49754500
          H     12.82160000     10.42714000     11.42837500
          H     14.17079000     11.22039000     11.30298500
          O      9.36883000     14.95586000     13.80519500
          H     10.33088000     15.10191000     13.74600500
          H      9.27393000     14.01781000     14.03472500
          O      8.73896000     15.33762000     11.23560500
          H      8.05693000     16.00388000     11.11157500
          H      8.89104000     15.26290000     12.21524500
          O      9.59399000     11.88088000     13.64976500
          H      9.37971000     12.17752000     12.74288500
          H     10.55785000     12.05289000     13.77156500
          O     11.40208000     12.59836000      9.75712500
          H     11.19700000     11.84915000      9.16902500
          H     12.10239000     12.24929000     10.34331500
          O     11.94057000      9.05676000     11.20328500
          H     11.18879000      9.03407000     11.82339500
          H     11.53334000      9.20902000     10.33149500
          O     12.10359000     15.15602000     13.06538500
          H     12.74173000     15.83173000     13.31227500
          H     11.96085000     15.25285000     12.08701500
          O      8.91006000     12.54634000     11.00707500
          H      8.58232000     13.46230000     10.97581500
          H      9.78995000     12.59220000     10.57637500
          O      9.53257000      9.29841000     12.74744500
          H      9.24457000      8.66796000     13.41452500
          H      9.52952000     10.18458000     13.19040500
          O     12.27725000     12.44280000     13.92650500
          H     12.34250000     13.38916000     13.71410500
          H     12.72890000     12.00486000     13.18479500
          O     10.60223000     10.02458000      8.86496500
          H     10.53182000      9.58684000      8.01157500
          H      9.70235000      9.95231000      9.28989500
    &END COORD
  &END SUBSYS
&END FORCE_EVAL

&GLOBAL 
  PROJECT H2O_13-Pr454
&END GLOBAL

