&FORCE_EVAL 
  &DFT 
    MULTIPLICITY 1
    CHARGE 0
    &POISSON 
      PERIODIC NONE
      PSOLVER MT
    &END POISSON
  &END DFT
  &SUBSYS 
    &CELL 
      PERIODIC NONE
      ABC     20.33960000     23.25620000     25.18160000
    &END CELL
    &COORD 
          O     10.95460000     12.55458000     11.88574000
          H     11.08646000     12.17771000     10.99210000
          H     10.11812000     12.16192000     12.20292000
          O      9.73795000     13.12141000     16.38620000
          H      9.12123000     13.54800000     15.76465000
          H      9.56416000     12.17258000     16.26197000
          O     11.22944000     10.90146000      9.71292000
          H     10.67518000     10.23428000     10.17159000
          H     10.94497000     10.90966000      8.79540000
          O      8.48276000     11.56009000     12.93067000
          H      8.58465000     11.13856000     13.80115000
          H      8.16076000     12.45184000     13.15575000
          O      9.62548000      9.35528000     11.35792000
          H      8.99295000     10.01970000     11.67045000
          H     10.10286000      9.10295000     12.16593000
          O     10.88041000      9.10594000     14.01816000
          H     11.36293000      8.31405000     14.27415000
          H     11.56207000      9.84198000     13.95137000
          O     12.50936000     11.12250000     13.74378000
          H     12.51050000     11.81889000     14.42482000
          H     12.12291000     11.58904000     12.97488000
          O      9.08885000     10.48818000     15.54345000
          H      9.74457000      9.87542000     15.13669000
          H      8.46533000      9.94027000     16.02958000
          O     12.12367000     13.50665000     15.26619000
          H     12.75470000     13.89177000     15.88127000
          H     11.27874000     13.37474000     15.77215000
          O     10.60360000     14.94215000     13.23240000
          H     11.23269000     14.68101000     13.92731000
          H     10.77567000     14.27820000     12.53627000
          O      8.25543000     14.09354000     14.11556000
          H      7.58490000     14.78239000     14.09211000
          H      9.09487000     14.50150000     13.75896000
    &END COORD
  &END SUBSYS
&END FORCE_EVAL

&GLOBAL 
  PROJECT H2O_11-Pr443
&END GLOBAL

