&FORCE_EVAL 
  &DFT 
    MULTIPLICITY 1
    CHARGE 0
    &POISSON 
      PERIODIC NONE
      PSOLVER MT
    &END POISSON
  &END DFT
  &SUBSYS 
    &CELL 
      PERIODIC NONE
      ABC     19.35300000     19.35300000     23.72376000
    &END CELL
    &COORD 
          O     11.47097000     10.59991000     14.63023000
          H     12.01475000     11.03625000     15.29282000
          H     10.55598000     10.97950000     14.72764000
          O      7.88203000      8.75309000     14.63023000
          H      7.33825000      8.31675000     15.29282000
          H      8.79702000      8.37350000     14.72764000
          O     10.59991000      7.88203000      9.09353000
          H     11.03625000      7.33825000      8.43094000
          H     10.97950000      8.79702000      8.99612000
          O      7.92437000      8.93497000      8.96560000
          H      7.64005000      8.75600000      9.87784000
          H      8.75529000      8.43436000      8.87765000
          O      8.79098000     11.41434000     11.91461000
          H      8.64418000     11.76668000     11.01999000
          H      8.39241000     10.51609000     11.87901000
          O     10.56202000      7.93866000     11.91461000
          H     10.96059000      8.83691000     11.87901000
          H     10.70882000      7.58632000     11.01999000
          O     11.41434000     10.56202000     11.80915000
          H     11.76668000     10.70882000     12.70377000
          H     10.51609000     10.96059000     11.84475000
          O      7.93866000      8.79098000     11.80915000
          H      7.58632000      8.64418000     12.70377000
          H      8.83691000      8.39241000     11.84475000
          O     11.42863000     10.41803000      8.96560000
          H     11.71295000     10.59700000      9.87784000
          H     10.59771000     10.91864000      8.87765000
          O     10.41803000      7.92437000     14.75816000
          H     10.59700000      7.64005000     13.84592000
          H     10.91864000      8.75529000     14.84611000
          O      8.75309000     11.47097000      9.09353000
          H      8.31675000     12.01475000      8.43094000
          H      8.37350000     10.55598000      8.99612000
          O      8.93497000     11.42863000     14.75816000
          H      8.75600000     11.71295000     13.84592000
          H      8.43436000     10.59771000     14.84611000
    &END COORD
  &END SUBSYS
&END FORCE_EVAL

&GLOBAL 
  PROJECT H2O_12-Pr444
&END GLOBAL

