&FORCE_EVAL 
  &DFT 
    MULTIPLICITY 1
    CHARGE 0
    &POISSON 
      PERIODIC NONE
      PSOLVER MT
    &END POISSON
  &END DFT
  &SUBSYS 
    &CELL 
      PERIODIC NONE
      ABC     20.48118000     19.62014000     20.87704000
    &END CELL
    &COORD 
          O     10.66553500      7.41056500     10.83336000
          H     11.20275500      7.40503500     10.01965000
          H      9.76431500      7.60488500     10.51616000
          O     11.92946500      7.92974500      8.33706000
          H     12.86088500      8.15762500      8.27379000
          H     11.44084500      8.76839500      8.24955000
          O     10.62571500     11.53027500     10.69604000
          H     11.29711500     12.21510500     10.75950000
          H     10.90177500     10.83009500     11.34409000
          O     11.43735500      9.52436500     12.23860000
          H     11.19379500      9.38671500     13.15778000
          H     11.16444500      8.69691500     11.75385000
          O     10.20626500     10.17033500      8.44536000
          H     10.39907500     10.74410500      9.23358000
          H      9.99851500     10.76548500      7.71926000
          O      8.30015500      8.40309500      9.59656000
          H      7.62029500      8.88608500     10.07449000
          H      8.81603500      9.07702500      9.11764000
    &END COORD
  &END SUBSYS
&END FORCE_EVAL

&GLOBAL 
  PROJECT H2O_6-Bag
&END GLOBAL

