&FORCE_EVAL 
  &DFT 
    MULTIPLICITY 1
    CHARGE 0
    &POISSON 
      PERIODIC NONE
      PSOLVER MT
    &END POISSON
  &END DFT
  &SUBSYS 
    &CELL 
      PERIODIC NONE
      ABC     22.25958000     21.37210000     21.91088000
    &END CELL
    &COORD 
          O      8.24993500     12.43628500     13.41620000
          H      8.06489500     13.22453500     13.93316000
          H      9.19884500     12.24377500     13.53636000
          O      9.69997500      9.65576500     10.20900000
          H      9.07531500     10.38548500     10.40764000
          H     10.33034500     10.06840500      9.59386000
          O     11.02979500     13.16223500     10.80765000
          H     10.79110500     12.57604500     11.55424000
          H     11.87579500     13.52907500     11.10101000
          O     10.88199500     11.62354500     13.17517000
          H     10.92789500     10.66196500     13.01090000
          H     11.81621500     11.90879500     13.19841000
          O     11.56210500     11.37997500      8.85358000
          H     11.38487500     11.73592500      7.97772000
          H     11.33789500     12.09673500      9.49748000
          O     13.38628500     12.49700500     12.42346000
          H     13.66603500     11.91103500     11.66834000
          H     14.19468500     12.73004500     12.88793000
          O     11.12977500      8.94546500     12.27136000
          H     10.52679500      9.16683500     11.50051000
          H     10.70416500      8.22615500     12.74822000
          O      8.23781500     12.00352500     10.66144000
          H      8.08345500     12.19786500     11.60685000
          H      8.80287500     12.72656500     10.36682000
          O     13.41057500      8.32859500     10.70573000
          H     12.62781500      8.42712500     11.28193000
          H     13.10675500      7.84302500      9.93322000
          O     14.01864500     11.02336500     10.29478000
          H     13.33435500     11.19625500      9.62758000
          H     13.94214500     10.05946500     10.44253000
    &END COORD
  &END SUBSYS
&END FORCE_EVAL

&GLOBAL 
  PROJECT H2O_10-Butterfly
&END GLOBAL

