&FORCE_EVAL 
  &DFT 
    MULTIPLICITY 1
    CHARGE 0
    &POISSON 
      PERIODIC NONE
      PSOLVER MT
    &END POISSON
  &END DFT
  &SUBSYS 
    &CELL 
      PERIODIC NONE
      ABC     21.01888000     20.72766000     21.27298000
    &END CELL
    &COORD 
          O      8.77347000      8.54636500     11.74341500
          H      9.52612000      8.44565500     11.09637500
          H      8.35831000      7.68191500     11.81265500
          O      9.85041000     10.81192500      8.74031500
          H      9.93603000     11.07052500      7.81824500
          H     10.37592000     11.47525500      9.26820500
          O     11.18125000     12.44850500     10.34349500
          H     11.79069000     11.82696500     10.78286500
          H     10.54724000     12.68273500     11.04425500
          O     10.81863000      8.51846500     10.06184500
          H     10.54315000      9.19597500      9.41687500
          H     11.54638000      8.94524500     10.54774500
          O     10.45126000     10.10196500     13.45473500
          H      9.84419000      9.43061500     13.09634500
          H      9.98197000     10.94279500     13.30001500
          O      9.18608000     12.37844500     12.38113500
          H      8.57317000     11.89226500     11.76191500
          H      8.65278000     13.04574500     12.82241500
          O     12.39634000     10.27480500     11.66383500
          H     11.73083000     10.20271500     12.40337500
          H     13.26416000     10.21405500     12.07319500
          O      7.75472000     10.94555500     10.67613500
          H      7.89535000     10.04654500     11.02727500
          H      8.26690000     10.95199500      9.84837500
    &END COORD
  &END SUBSYS
&END FORCE_EVAL

&GLOBAL 
  PROJECT H2O_8-S4
&END GLOBAL

