&FORCE_EVAL 
  &DFT 
    MULTIPLICITY 1
    CHARGE 0
    &POISSON 
      PERIODIC NONE
      PSOLVER MT
    &END POISSON
  &END DFT
  &SUBSYS 
    &CELL 
      PERIODIC NONE
      ABC     16.27900000     19.91862000     19.78294000
    &END CELL
    &COORD 
          O      7.02583000      8.34394500     11.61015500
          H      7.42111000      7.85506500     12.33720500
          H      7.12521000      9.29693500     11.84370500
          O      8.08011000      7.88403500      9.14266500
          H      7.38298000      7.47965500      8.61965500
          H      7.69457000      8.02194500     10.03983500
          O      8.85438000     12.09707500     10.20218500
          H      9.04988000     11.41891500      9.51367500
          H      9.70925000     12.43896500     10.47813500
          O      7.36444000     10.98052500     12.18631500
          H      7.90480000     11.41098500     11.48226500
          H      6.56975000     11.51455500     12.26969500
          O      9.38668000     10.15903500      8.37072500
          H      9.19636000     10.33525500      7.44573500
          H      8.91397000      9.32381500      8.59215500
    &END COORD
  &END SUBSYS
&END FORCE_EVAL

&GLOBAL 
  PROJECT H2O_5-Cyclic
&END GLOBAL

