&FORCE_EVAL 
  &DFT 
    MULTIPLICITY 1
    CHARGE 0
    &POISSON 
      PERIODIC NONE
      PSOLVER MT
    &END POISSON
  &END DFT
  &SUBSYS 
    &CELL 
      PERIODIC NONE
      ABC     18.09720000     17.27508000     29.31224000
    &END CELL
    &COORD 
          O     10.51008000      7.30994000     13.30290000
          H     10.80101000      7.12196000     12.39321000
          H      9.54325000      7.15939000     13.27069000
          O     10.51008000      9.96514000     16.00934000
          H      9.54325000     10.11569000     16.04155000
          H     10.80101000     10.15312000     16.91903000
          O     10.13812000      7.07347000     18.99098000
          H     10.39775000      6.84050000     18.08336000
          H     10.44835000      7.99155000     19.08593000
          O     10.40754000      7.15730000     16.15134000
          H     10.54470000      8.12639000     16.08973000
          H     10.72025000      6.83391000     15.29219000
          O      7.68966000     10.11778000     16.15134000
          H      7.55250000      9.14869000     16.08973000
          H      7.37695000     10.44117000     15.29219000
          O      7.95908000      7.07347000     10.32126000
          H      7.69945000      6.84050000     11.22888000
          H      7.64885000      7.99155000     10.22631000
          O      7.48447000      9.92067000     10.48097000
          H      7.02430000     10.45631000      9.82806000
          H      8.45441000     10.10779000     10.36371000
          O      7.48447000      7.35441000     18.83127000
          H      8.45441000      7.16729000     18.94853000
          H      7.02430000      6.81877000     19.48418000
          O     10.61273000      9.92067000     18.83127000
          H     11.07290000     10.45631000     19.48418000
          H      9.64279000     10.10779000     18.94853000
          O     10.13812000     10.20161000     10.32126000
          H     10.39775000     10.43458000     11.22888000
          H     10.44835000      9.28353000     10.22631000
          O      7.58712000      7.30994000     16.00934000
          H      7.29619000      7.12196000     16.91903000
          H      8.55395000      7.15939000     16.04155000
          O      7.58712000      9.96514000     13.30290000
          H      8.55395000     10.11569000     13.27069000
          H      7.29619000     10.15312000     12.39321000
          O     10.61273000      7.35441000     10.48097000
          H     11.07290000      6.81877000      9.82806000
          H      9.64279000      7.16729000     10.36371000
          O      7.95908000     10.20161000     18.99098000
          H      7.69945000     10.43458000     18.08336000
          H      7.64885000      9.28353000     19.08593000
          O      7.68966000      7.15730000     13.16090000
          H      7.55250000      8.12639000     13.22251000
          H      7.37695000      6.83391000     14.02005000
          O     10.40754000     10.11778000     13.16090000
          H     10.72025000     10.44117000     14.02005000
          H     10.54470000      9.14869000     13.22251000
    &END COORD
  &END SUBSYS
&END FORCE_EVAL

&GLOBAL 
  PROJECT H2O_16-Pr4444
&END GLOBAL

