&FORCE_EVAL 
  &DFT 
    MULTIPLICITY 1
    CHARGE 0
    &POISSON 
      PERIODIC NONE
      PSOLVER MT
    &END POISSON
  &END DFT
  &SUBSYS 
    &CELL 
      PERIODIC NONE
      ABC     25.57966000     24.16540000     21.13148000
    &END CELL
    &COORD 
          O     12.41121500     11.62510000      8.19128000
          H     12.83586500     11.85921000      7.34285000
          H     13.16312500     11.39155000      8.77766000
          O     13.02083500     12.85380000     13.38433000
          H     13.56611500     13.48247000     12.88240000
          H     13.24959500     11.99471000     12.97265000
          O     13.76501500     15.19601000      7.10319000
          H     13.05452500     15.07280000      7.76170000
          H     14.54305500     15.37037000      7.66092000
          O     15.90545500     15.06174000      9.06945000
          H     16.20171500     14.20088000      8.67586000
          H     16.68474500     15.62405000      9.10832000
          O      9.60046500     13.91297000      9.97987000
          H      9.69383500     13.73092000     10.93108000
          H      9.47521500     13.03431000      9.58923000
          O      9.89448500     11.09320000      9.04017000
          H      9.35100500     10.60558000      8.41443000
          H     10.77269500     11.21244000      8.61354000
          O     14.64010500     11.41974000      9.83557000
          H     14.55863500     12.27288000     10.31438000
          H     14.50706500     10.76616000     10.54286000
          O     10.73484500     10.39645000     11.61672000
          H     10.39026500     10.38665000     10.70555000
          H     10.55471500     11.31654000     11.91313000
          O     12.43928500     11.57149000     15.84861000
          H     12.80951500     12.17942000     15.18474000
          H     11.48231500     11.73971000     15.79569000
          O     12.22833500     14.24164000      9.22867000
          H     11.28982500     14.32651000      9.50987000
          H     12.25752500     13.33649000      8.86342000
          O     16.41135500     12.64146000      7.97423000
          H     15.77543500     12.58600000      7.24042000
          H     16.04202500     12.03082000      8.63548000
          O     14.06206500     12.70730000      6.24279000
          H     14.05025500     12.64922000      5.28287000
          H     13.93943500     13.67282000      6.46868000
          O     10.32461500     12.95506000     12.55629000
          H     11.25748500     13.09943000     12.81586000
          H      9.88064500     12.75967000     13.40265000
          O      9.89061500      9.37073000     14.09894000
          H     10.78328500      9.09182000     14.36751000
          H      9.99724500      9.54915000     13.14659000
          O     12.73506500      9.18486000     14.63273000
          H     12.68831500     10.02972000     15.15492000
          H     13.17024500      8.54135000     15.19979000
          O     13.45563500     10.34984000     12.15170000
          H     12.52841500     10.28439000     11.83928000
          H     13.46841500      9.77143000     12.93474000
          O     14.25059500     13.91218000     11.07464000
          H     14.94435500     14.45268000     10.65807000
          H     13.45709500     14.11682000     10.53272000
          O      9.66012500     11.84974000     15.05166000
          H      8.89491500     11.96029000     15.62369000
          H      9.65112500     10.90131000     14.74819000
    &END COORD
  &END SUBSYS
&END FORCE_EVAL

&GLOBAL 
  PROJECT H2O_18-Pr44244
&END GLOBAL

