&FORCE_EVAL 
  &DFT 
    MULTIPLICITY 1
    CHARGE 0
    &POISSON 
      PERIODIC NONE
      PSOLVER MT
    &END POISSON
  &END DFT
  &SUBSYS 
    &CELL 
      PERIODIC NONE
      ABC     20.35418000     21.73114000     21.54434000
    &END CELL
    &COORD 
          O     10.74101500     10.90164500     12.77918500
          H     10.88537500     10.01821500     12.33860500
          H     11.12466500     10.83296500     13.65825500
          O      7.96712500     10.67136500     12.01654500
          H      8.80401500     10.73246500     12.50833500
          H      7.96839500     11.49992500     11.50035500
          O     10.93303500      8.59490500     11.50445500
          H     10.02037500      8.37712500     11.24022500
          H     11.37572500      8.72570500     10.64640500
          O      8.99134500      9.62481500      7.88608500
          H      8.58398500      9.23632500      8.68050500
          H      9.92086500      9.36467500      7.97973500
          O     11.98144500     11.80550500      8.58118500
          H     12.76563500     12.24392500      8.23820500
          H     11.80655500     12.20876500      9.48215500
          O      8.29422500      8.57122500     10.43305500
          H      8.08038500      9.35521500     11.00996500
          H      7.58854500      7.93278500     10.57172500
          O     11.72197500      9.11698500      8.84193500
          H     11.93404500     10.07232500      8.72347500
          H     12.40658500      8.62556500      8.37910500
          O     11.35884500     12.87373500     10.89386500
          H     11.32267500     12.21258500     11.61191500
          H     10.42877500     13.15688500     10.82597500
          O      9.12022500     12.36734500      8.10787500
          H      8.94663500     11.40749500      7.97258500
          H     10.08651500     12.41428500      8.04831500
          O      8.52527500     13.02220500     10.58508500
          H      8.66804500     12.79234500      9.62203500
          H      7.95767500     13.79835500     10.59712500
    &END COORD
  &END SUBSYS
&END FORCE_EVAL

&GLOBAL 
  PROJECT H2O_10-Prism
&END GLOBAL

