&FORCE_EVAL 
  &DFT 
    MULTIPLICITY 1
    CHARGE 0
    &POISSON 
      PERIODIC NONE
      PSOLVER MT
    &END POISSON
  &END DFT
  &SUBSYS 
    &CELL 
      PERIODIC NONE
      ABC     22.83534000     23.53272000     27.24952000
    &END CELL
    &COORD 
          O      9.69002500     11.63727000     10.15466000
          H      9.26610500     11.44666000      9.31238000
          H      9.65160500     12.61285000     10.27012000
          O      8.95308500     11.22388000     12.93982000
          H      8.83037500     11.23451000     11.97888000
          H      9.84522500     10.82462000     13.04472000
          O      9.62685500     14.32112000     10.79842000
          H     10.54200500     14.62855000     11.05508000
          H      9.28990500     14.98148000     10.18543000
          O      8.84840500     13.48569000     16.59092000
          H      8.61128500     12.54936000     16.41236000
          H      8.73025500     13.91238000     15.72874000
          O     13.22516500     12.00411000     14.14902000
          H     13.77096500     12.19201000     13.36842000
          H     12.69980500     12.82944000     14.25156000
          O      9.10704500     13.89213000     13.68067000
          H      9.02911500     12.93524000     13.46951000
          H      9.02104500     14.31569000     12.81333000
          O     11.44336500     13.53668000     17.10720000
          H     11.59740500     13.99823000     17.93714000
          H     10.45214500     13.51965000     16.98332000
          O     12.40960500     10.78012000     10.59798000
          H     12.20497500     10.27809000     11.40633000
          H     11.53066500     11.07195000     10.29817000
          O     11.46513500     10.10069000     13.19320000
          H     12.07669500     10.77297000     13.56930000
          H     11.27905500      9.50224000     13.93845000
          O     11.75907500     14.32769000     14.39100000
          H     11.79018500     14.37025000     15.36278000
          H     10.81580500     14.15065000     14.18366000
          O      8.32104500     10.86837000     15.78364000
          H      9.06807500     10.25559000     15.89635000
          H      8.20883500     10.91466000     14.82243000
          O     12.52071500     10.90636000     16.74989000
          H     12.12299500     11.75626000     17.01800000
          H     13.04678500     11.14669000     15.96975000
          O     13.80631500     12.89415000     11.47146000
          H     13.32043500     12.11865000     11.08264000
          H     14.62650500     12.97030000     10.97455000
          O     12.02546500     15.09764000     11.60933000
          H     12.68247500     14.39455000     11.44229000
          H     12.00700500     15.14954000     12.57956000
          O     10.70827500      9.22236000     15.76757000
          H     10.73252500      8.38318000     16.23679000
          H     11.37709500      9.80852000     16.21198000
    &END COORD
  &END SUBSYS
&END FORCE_EVAL

&GLOBAL 
  PROJECT H2O_15-Pr555
&END GLOBAL

