&FORCE_EVAL 
  &DFT 
    MULTIPLICITY 1
    CHARGE 0
    &POISSON 
      PERIODIC NONE
      PSOLVER MT
    &END POISSON
  &END DFT
  &SUBSYS 
    &CELL 
      PERIODIC NONE
      ABC     19.62728000     23.62476000     20.65728000
    &END CELL
    &COORD 
          O     10.33311000      9.28545000     11.62166000
          H     10.54599000      8.40619000     11.29871000
          H     11.07892000      9.87766000     11.33356000
          O      9.07529000     13.05586000     12.53773000
          H      8.67528000     13.66504000     11.89189000
          H      8.79596000     12.18568000     12.20186000
          O     12.22046000     10.99285000     10.84994000
          H     12.19100000     11.77301000     11.43274000
          H     12.03898000     11.37174000      9.97087000
          O      8.24518000     10.77071000     11.00458000
          H      8.95460000     10.10669000     11.21180000
          H      7.40682000     10.34459000     11.20404000
          O      8.31274000     14.44391000     10.18236000
          H      9.25590000     14.73578000     10.04778000
          H      7.76048000     15.21857000     10.04418000
          O      8.78969000     12.12861000      8.59698000
          H      8.56521000     11.50369000      9.31107000
          H      8.46356000     12.97477000      8.95162000
          O     11.67913000     13.44675000     12.17953000
          H     12.09271000     13.74975000     12.99296000
          H     10.72278000     13.27456000     12.39801000
          O     11.41553000     12.47213000      8.55533000
          H     10.43648000     12.28657000      8.51183000
          H     11.75399000     12.34463000      7.66432000
          O     10.90186000     14.93642000      9.88680000
          H     11.29238000     14.64300000     10.72992000
          H     11.19269000     14.24295000      9.26726000
    &END COORD
  &END SUBSYS
&END FORCE_EVAL

&GLOBAL 
  PROJECT H2O_9-D2dDD
&END GLOBAL

