&FORCE_EVAL 
  &DFT 
    MULTIPLICITY 1
    CHARGE 0
    &POISSON 
      PERIODIC NONE
      PSOLVER MT
    &END POISSON
  &END DFT
  &SUBSYS 
    &CELL 
      PERIODIC NONE
      ABC     22.59480000     19.30362000     17.26760000
    &END CELL
    &COORD 
          O      9.03665000      7.85968500      8.72252000
          H      8.14870000      7.70977500      9.05822000
          H      9.00853000      8.73677500      8.28543000
          O     13.56145000      8.03713500      9.30508000
          H     13.53408000      7.32590500      8.65913000
          H     12.66973000      8.05024500      9.73942000
          O     11.16356000      8.41532500     10.45070000
          H     11.10751000      9.37930500     10.35764000
          H     10.40282000      8.09037500      9.92877000
          O     13.64907000     10.60245500      8.56344000
          H     14.44610000     10.99025500      8.93527000
          H     13.70035000      9.63457500      8.77309000
          O      9.17440000     10.43022500      7.72729000
          H      9.40826000     10.63060500      6.81690000
          H      9.90086000     10.78760500      8.27705000
          O     11.20033000     11.16312500      9.46767000
          H     11.17478000     11.97771500      9.97760000
          H     12.13138000     11.06192500      9.14003000
    &END COORD
  &END SUBSYS
&END FORCE_EVAL

&GLOBAL 
  PROJECT H2O_6-Book
&END GLOBAL

