&FORCE_EVAL 
  &DFT 
    MULTIPLICITY 1
    CHARGE 0
    &POISSON 
      PERIODIC NONE
      PSOLVER MT
    &END POISSON
  &END DFT
  &SUBSYS 
    &CELL 
      PERIODIC NONE
      ABC     22.53350000     17.25778000     20.93910000
    &END CELL
    &COORD 
          O      9.05201500      7.37450500     11.11927500
          H      9.09469500      7.63452500     10.16859500
          H      8.13337500      7.47274500     11.38107500
          O     13.48399500      7.72211500     11.53508500
          H     13.76367500      6.81444500     11.68180500
          H     12.61515500      7.80814500     11.99508500
          O     11.09849500      7.93863500     12.79517500
          H     10.33331500      7.76127500     12.19950500
          H     10.92430500      8.79030500     13.20432500
          O     13.54829500      8.59945500      8.97362500
          H     14.40012500      9.03159500      8.87514500
          H     13.51230500      8.27452500      9.90439500
          O      9.13239500      8.09735500      8.51079500
          H      9.04508500      7.38904500      7.86719500
          H      9.92768500      8.61081500      8.23184500
          O     11.31739500      9.49314500      7.73477500
          H     11.26316500     10.44333500      7.86627500
          H     12.14200500      9.20212500      8.18995500
    &END COORD
  &END SUBSYS
&END FORCE_EVAL

&GLOBAL 
  PROJECT H2O_6-Cyclic-2
&END GLOBAL

