&FORCE_EVAL 
  &DFT 
    MULTIPLICITY 1
    CHARGE 0
    &POISSON 
      PERIODIC NONE
      PSOLVER MT
    &END POISSON
  &END DFT
  &SUBSYS 
    &CELL 
      PERIODIC NONE
      ABC     18.11606000     23.05258000     18.44204000
    &END CELL
    &COORD 
          O      9.36461500     14.02304500      9.87845000
          H      9.36436500     14.78943500     10.45819000
          H      8.43820500     13.66898500      9.87157000
          O      7.93679500     10.28234500     10.55400000
          H      7.59373500      9.83270500     11.33153000
          H      8.08122500      9.58568500      9.87090000
          O     10.23387500     10.64046500      7.62399000
          H     11.08704500     10.49738500      7.20323000
          H     10.42916500     10.97734500      8.54651000
          O     10.49662500     11.48648500     10.10121000
          H     10.26796500     12.43668500     10.12489000
          H      9.72419500     11.05213500     10.50214000
          O      8.65450500      8.58109500      8.57102000
          H      9.25017500      9.20299500      8.10073000
          H      8.03153500      8.26314500      7.91143000
          O      7.02901500     12.79445500      9.46975000
          H      7.30523500     12.72430500      8.53641000
          H      7.15333500     11.90421500      9.83830000
          O      8.59027500     12.98732500      7.12562000
          H      9.16061500     12.20061500      7.11051000
          H      9.08278500     13.62987500      7.65275000
    &END COORD
  &END SUBSYS
&END FORCE_EVAL

&GLOBAL 
  PROJECT H2O_7-Prism-2
&END GLOBAL

