&FORCE_EVAL 
  &DFT 
    MULTIPLICITY 1
    CHARGE 0
    &POISSON 
      PERIODIC NONE
      PSOLVER MT
    &END POISSON
  &END DFT
  &SUBSYS 
    &CELL 
      PERIODIC NONE
      ABC     22.90164000     22.48190000     14.49646000
    &END CELL
    &COORD 
          O     12.46635000     13.74949500      7.14153500
          H     11.49633000     13.58420500      7.06228500
          H     12.56615000     14.36142500      7.87575500
          O     13.10662000      9.13334500      7.55321500
          H     13.50251000      8.82381500      8.37234500
          H     13.45430000     10.04736500      7.41802500
          O     14.11532000     11.61273500      7.20841500
          H     13.49513000     12.38052500      7.19347500
          H     14.67623000     11.71741500      6.43523500
          O     10.44455000      8.73785500      7.35240500
          H     10.34573000      8.12047500      6.62267500
          H     11.41450000      8.90317500      7.43209500
          O      9.80437000     13.35404500      6.94090500
          H      9.40797000     13.66908500      6.12411500
          H      9.45625000     12.43936500      7.07057500
          O      8.79455000     10.87310500      7.27092500
          H      8.22541000     10.76661500      8.03782500
          H      9.41507000     10.10569500      7.29121500
    &END COORD
  &END SUBSYS
&END FORCE_EVAL

&GLOBAL 
  PROJECT H2O_6-Cyclic
&END GLOBAL

