&FORCE_EVAL 
  &DFT 
    MULTIPLICITY 1
    CHARGE 0
    &POISSON 
      PERIODIC NONE
      PSOLVER MT
    &END POISSON
  &END DFT
  &SUBSYS 
    &CELL 
      PERIODIC NONE
      ABC     17.89110000     17.92908000     17.48462000
    &END CELL
    &COORD 
          O     10.30692500      7.59935000     10.19604500
          O      7.58589500      7.59595000      7.28575500
          O     10.30724500     10.32661000      7.28872500
          O      7.58468500     10.33156000     10.19919500
          H     10.41943500      7.48966000      9.21196500
          H      7.47326500      7.48880000      8.27007500
          H     10.41831500     10.43756000      8.27286500
          H      7.47252500     10.43863000      9.21486500
          H     10.91832500      6.98507000     10.61221500
          H      6.97277500      6.98227000      6.87115500
          H     10.91655500     10.94313000      6.87279500
          H      6.97300500     10.94681000     10.61346500
          O     10.41087500      7.49993000      7.54457500
          O      7.48244500      7.50284000      9.93784500
          O     10.40933500     10.42733000      9.94019500
          O      7.48243500     10.42423000      7.54718500
          H      9.48270500      7.34871000      7.29032500
          H      8.41120500      7.35312000     10.19103500
          H      9.48094500     10.57775000     10.19430500
          H     10.55951500      8.42854000      7.29057500
          H      7.33647500      9.49484000      7.29459500
          H     10.55749500      9.49838000     10.19310500
          H      7.33397500      8.43173000     10.19073500
          H      8.41088500     10.57644000      7.29455500
    &END COORD
  &END SUBSYS
&END FORCE_EVAL

&GLOBAL 
  PROJECT H2O_8-D2d
&END GLOBAL

