&FORCE_EVAL 
  &DFT 
    MULTIPLICITY 1
    CHARGE 0
    &POISSON 
      PERIODIC NONE
      PSOLVER MT
    &END POISSON
  &END DFT
  &SUBSYS 
    &CELL 
      PERIODIC NONE
      ABC     11.85962000     12.41854000     10.00000000
    &END CELL
    &COORD 
          O      5.46604500      5.85260500      5.00000000
          H      5.46490500      6.81390500      5.00000000
          H      6.39471500      5.60463500      5.00000000
    &END COORD
  &END SUBSYS
&END FORCE_EVAL

&GLOBAL 
  PROJECT H2O_1
&END GLOBAL

