&FORCE_EVAL 
  &DFT 
    MULTIPLICITY 1
    CHARGE 0
    &POISSON 
      PERIODIC NONE
      PSOLVER MT
    &END POISSON
  &END DFT
  &SUBSYS 
    &CELL 
      PERIODIC NONE
      ABC     26.93022000     26.51632000     24.37370000
    &END CELL
    &COORD 
          O     11.18609500     16.29798000     13.99008500
          H     10.86511500     15.47671000     14.40296500
          H     11.17862500     16.09330000     13.03475500
          O      9.97975500     13.24038000     10.31046500
          H     10.42501500     14.08388000     10.55377500
          H      9.23255500     13.48282000      9.75437500
          O     13.50153500     13.56721000     14.90872500
          H     13.72201500     14.51075000     15.03322500
          H     12.55169500     13.49757000     15.12500500
          O     14.12100500     14.05880000      8.78765500
          H     13.93461500     14.94222000      9.14375500
          H     14.82876500     13.73582000      9.37018500
          O     12.03038500     10.88538000     12.29560500
          H     12.73410500     10.50076000     12.85474500
          H     12.19730500     10.47723000     11.42317500
          O     11.47751500     15.28746000     11.35258500
          H     12.11369500     14.59600000     11.65938500
          H     12.05249500     15.88875000     10.84488500
          O     15.63975500     11.83152000     14.90223500
          H     16.21397500     12.44594000     14.41549500
          H     14.87276500     12.39638000     15.11521500
          O     13.18059500     13.39946000     12.16545500
          H     12.75664500     12.51648000     12.10225500
          H     13.34544500     13.50735000     13.12676500
          O     15.37238500     16.69585000     12.45160500
          H     15.95446500     15.94321000     12.64656500
          H     14.78990500     16.71964000     13.23235500
          O     15.72835500     10.49426000     10.95373500
          H     15.43751500     10.20963000     11.83539500
          H     14.94908500     10.30169000     10.40410500
          O     14.38523500      9.97012000     13.46993500
          H     14.47785500      9.12908000     13.92733500
          H     14.88261500     10.63531000     14.01974500
          O     13.71720500     16.34617000     14.73173500
          H     13.84495500     16.97215000     15.45079500
          H     12.75757500     16.42100000     14.46264500
          O     15.70453500     13.24891000     11.08232500
          H     15.83852500     12.27686000     10.99649500
          H     14.79293500     13.31659000     11.43972500
          O     16.74125500     14.18922000     13.35845500
          H     16.49996500     13.81649000     12.47097500
          H     17.69766500     14.29690000     13.35163500
          O      9.69041500     12.20454000     13.04715500
          H     10.40081500     11.56507000     12.85096500
          H      9.55675500     12.63865000     12.18763500
          O     10.71540500     13.66657000     15.01153500
          H     10.30319500     13.13872000     14.27103500
          H     10.15978500     13.50660000     15.78027500
          O     12.14042500     12.10520000      8.59342500
          H     12.80819500     12.82553000      8.59840500
          H     11.39346500     12.44510000      9.11340500
          O     13.11307500     10.02522000      9.86457500
          H     12.94534500      9.22826000      9.35310500
          H     12.76986500     10.78517000      9.31112500
          O     13.74420500     16.56538000     10.26529500
          H     13.88378500     17.38724000      9.78571500
          H     14.37422500     16.59721000     11.02968500
    &END COORD
  &END SUBSYS
&END FORCE_EVAL

&GLOBAL 
  PROJECT H2O_19-Globular
&END GLOBAL

