%nproc=8
%mem=6000MB
#p B3LYP/6-311+G(3df,2p) SCF=Tight NoSymm

Neutral O without BSSE correction

0 3
O  0.000 0.000 0.000

