#p b3lyp 6-311+g(3df,2p) scf=tight nosymm

ar_2

0    1
   Ar      0.00000000      0.00000000      1.88000787
   Ar      0.00000000      0.00000000     -1.88000787
 
 
 
