#p b3lyp 6-311+g(3df,2p) scf=tight nosymm

kr_2

0    1
   Kr      0.00000000      0.00000000      2.00499953
   Kr      0.00000000      0.00000000     -2.00499953
 
 
 
