#p b3lyp 6-311+g(3df,2p) scf=tight nosymm

ne

0    1
   Ne      0.00000000      0.00000000      0.00000000
 
 
 
