#p b3lyp 6-311+g(3df,2p) scf=tight nosymm

rn_2

0    1
   Rn      0.00000000      0.00000000     -2.23900169
   Rn      0.00000000      0.00000000      2.23900169
 
 
 
