#p b3lyp 6-311+g(3df,2p) scf=tight nosymm

rnxe

0    1
   Rn      0.00000000      0.00000000     -2.21404305
   Xe      0.00000000      0.00000000      2.21404305
 
 
 
