xc                      pbe                  
total_energy_method     rpa
relativistic            none
occupation_type         integer 0.0001
mixer                   pulay
n_max_pulay             10
charge_mix_param        0.6
sc_accuracy_rho         1E-6
sc_accuracy_eev         1E-4
sc_accuracy_etot        1E-6
sc_iter_limit           200
rpa_frozen_core         1
