#p b3lyp 6-311+g(3df,2p) scf=tight nosymm

H2O

0    1
    O      0.00000000      0.00000000     -0.38936111
    H      0.76298439      0.00000000      0.19468055
    H     -0.76298439      0.00000000      0.19468055
 
 
 
