#p b3lyp 6-311+g(3df,2p) scf=tight nosymm

H2O4

0    1
    O     -1.45649242      1.28720932     -0.00736890
    H     -0.49296699      1.47969275     -0.00986060
    H     -1.81941989      1.74937312      0.75214359
    O     -1.28720932     -1.45649242      0.00736890
    H     -1.47969275     -0.49296699      0.00986060
    H     -1.74937312     -1.81941989     -0.75214359
    O      1.45649242     -1.28720932     -0.00736890
    H      0.49296699     -1.47969275     -0.00986060
    H      1.81941989     -1.74937312      0.75214359
    O      1.28720932      1.45649242      0.00736890
    H      1.47969275      0.49296699      0.00986060
    H      1.74937312      1.81941989     -0.75214359
 
 
 
