#p b3lyp 6-311+g(3df,2p) scf=tight nosymm

H2O8d2d

0    1
    O     -1.46455522     -1.46455522      1.34970669
    O     -1.46455522      1.46455522     -1.34970669
    O      1.46455522     -1.46455522     -1.34970669
    O      1.46455522      1.46455522      1.34970669
    H     -1.53466543     -1.53466543      0.36225535
    H     -1.53466543      1.53466543     -0.36225535
    H      1.53466543     -1.53466543     -0.36225535
    H      1.53466543      1.53466543      0.36225535
    H     -2.08966358     -2.08966358      1.72511118
    H     -2.08966358      2.08966358     -1.72511118
    H      2.08966358     -2.08966358     -1.72511118
    H      2.08966358      2.08966358      1.72511118
    O     -1.40528858     -1.40528858     -1.33900825
    O     -1.40528858      1.40528858      1.33900825
    O      1.40528858     -1.40528858      1.33900825
    O      1.40528858      1.40528858     -1.33900825
    H     -1.55261578     -0.46206455     -1.52689894
    H     -1.55261578      0.46206455      1.52689894
    H      1.55261578     -0.46206455      1.52689894
    H     -0.46206455     -1.55261578     -1.52689894
    H      0.46206455      1.55261578     -1.52689894
    H      0.46206455     -1.55261578      1.52689894
    H     -0.46206455      1.55261578      1.52689894
    H      1.55261578      0.46206455     -1.52689894
 
 
 
