#p b3lyp 6-311+g(3df,2p) scf=tight nosymm

H3OpH2O6OHm

0    1
    O     -1.29245232      1.94314230      1.22264972
    O      0.00000000      0.00000000      2.19101805
    O      2.32903675      0.14772540      1.22264972
    O     -1.03658443     -2.09086769      1.22264972
    O     -0.11737380     -2.36663962     -1.18114656
    O      0.00000000      0.00000000     -2.12815000
    O      2.10825693      1.08167112     -1.18114656
    O     -1.99088313      1.28496850     -1.18114656
    H     -1.61213321      1.71080409      0.29022613
    H     -2.03299206      2.32680885      1.69771447
    H     -2.74718365      0.69698762     -1.24469791
    H     -0.99857954     -2.92402719      1.69771447
    H     -0.67553320     -2.25155035      0.29022613
    H     -1.20364679      0.77463152     -1.60909999
    H     -0.55754334      0.79063100      1.83294157
    H     -0.40593486     -0.87816220      1.83294157
    H      1.97720081      2.03063702     -1.24469791
    H     -0.06902718     -1.42970446     -1.60909999
    H      0.96347820      0.08753120      1.83294157
    H      0.76998284     -2.72762464     -1.24469791
    H      0.00000000      0.00000000     -3.08863035
    H      1.27267397      0.65507294     -1.60909999
    H      3.03157160      0.59721834      1.69771447
    H      2.28766641      0.54074627      0.29022613
 
 
 
