#p b3lyp 6-311+g(3df,2p) scf=tight nosymm

H3OpH2O2

1    1
    O      0.42771166      0.16719461      2.09948906
    H      0.91022250     -0.51373639      2.58098696
    H      0.20266311      0.86880282      2.72113742
    O      0.42771166      0.16719461     -2.09948906
    H      0.91022250     -0.51373639     -2.58098696
    H      0.20266311      0.86880282     -2.72113742
    O     -0.89266659     -0.10707197      0.00000000
    H     -0.34091522     -0.04213132      0.88069071
    H     -0.34091522     -0.04213132     -0.88069071
    H     -1.50669751     -0.85318746      0.00000000
 
 
 
