#p b3lyp 6-311+g(3df,2p) scf=tight nosymm

H3Op

1    1
    O      0.00000000      0.00000000     -0.20801049
    H      0.46975655      0.81364222      0.06933683
    H      0.46975655     -0.81364222      0.06933683
    H     -0.93951311      0.00000000      0.06933683
 
 
 
