#p b3lyp 6-311+g(3df,2p) scf=tight nosymm

OHm

-1    1
    O      0.00000000      0.00000000     -0.48221981
    H      0.00000000      0.00000000      0.48221981
 
 
 
