#p b3lyp 6-311+g(3df,2p) scf=tight nosymm

OHmH2O2

-1    1
    H     -1.45795868      0.00408432      0.02445937
    O     -2.42912041      0.07330546     -0.32631508
    H      0.00000000      0.00000000      1.48136827
    H     -2.45649864      0.95674364     -0.69941699
    O      0.00000000      0.00000000      0.52117713
    H      1.45795868     -0.00408432      0.02445937
    O      2.42912041     -0.07330546     -0.32631508
    H      2.45649864     -0.95674364     -0.69941699
 
 
 
