#p b3lyp 6-311+g(3df,2p) scf=tight nosymm

104

0    1
    O      0.21923715      0.95151447      0.00000000
    C     -0.31203869     -0.28547833      0.00000000
    O      0.31458792     -1.30608450      0.00000000
    H      1.18437053      0.85550555      0.00000000
    H     -1.40615690     -0.21545719      0.00000000
 
 
 
