#p b3lyp 6-311+g(3df,2p) scf=tight nosymm

11

0    1
    N      0.00000000      0.00000000      0.28518414
    H     -0.46974915      0.81362940     -0.09506138
    H     -0.46974915     -0.81362940     -0.09506138
    H      0.93949830      0.00000000     -0.09506138
 
 
 
