#p b3lyp 6-311+g(3df,2p) scf=tight nosymm

113

0    1
    C     -0.26241956     -0.59415450      0.00000000
    C      0.31843989      0.79068733      0.00000000
    O     -0.32857202      1.80653351      0.00000000
    H     -1.34937316     -0.55869977      0.00000000
    H      0.09702134     -1.13980205      0.87667771
    H      0.09702134     -1.13980205     -0.87667771
    H      1.42788216      0.83523752      0.00000000
 
 
 
