#p b3lyp 6-311+g(3df,2p) scf=tight nosymm

117

0    1
    S      0.00000000      0.00000000      1.59689526
    C      0.00000000     -0.73865082     -0.08529880
    C      0.00000000      0.73865082     -0.08529880
    H      0.91267835     -1.25059709     -0.35657441
    H     -0.91267835     -1.25059709     -0.35657441
    H     -0.91267835      1.25059709     -0.35657441
    H      0.91267835      1.25059709     -0.35657441
 
 
 
