#p b3lyp 6-311+g(3df,2p) scf=tight nosymm

13

0    1
    O      0.00000000      0.00000000     -0.39060553
    H     -0.76208038      0.00000000      0.19530276
    H      0.76208038      0.00000000      0.19530276
 
 
 
