#p b3lyp 6-311+g(3df,2p) scf=tight nosymm

21

0    1
    S      0.00000000      0.00000000     -0.61983338
    H     -0.97155203      0.00000000      0.30991669
    H      0.97155203      0.00000000      0.30991669
 
 
 
