#p b3lyp 6-311+g(3df,2p) scf=tight nosymm

22

0    1
   Cl      0.00000000      0.00000000     -0.64147569
    H      0.00000000      0.00000000      0.64147569
 
 
 
