#p b3lyp 6-311+g(3df,2p) scf=tight nosymm

23

0    1
   Li      0.00000000      0.00000000      1.35918065
   Li      0.00000000      0.00000000     -1.35918065
 
 
 
