#p b3lyp 6-311+g(3df,2p) scf=tight nosymm

24

0    1
   Li      0.00000000      0.00000000     -0.78296772
    F      0.00000000      0.00000000      0.78296772
 
 
 
