#p b3lyp 6-311+g(3df,2p) scf=tight nosymm

25

0    1
    C      0.00000000      0.00000000      0.59823387
    H      0.00000000      0.00000000      1.66055347
    C      0.00000000      0.00000000     -0.59823387
    H      0.00000000      0.00000000     -1.66055347
 
 
 
