#p b3lyp 6-311+g(3df,2p) scf=tight nosymm

26

0    1
    C      0.66250365      0.00000000      0.00000000
    C     -0.66250365      0.00000000      0.00000000
    H      1.23148895     -0.92119054      0.00000000
    H      1.23148895      0.92119054      0.00000000
    H     -1.23148895     -0.92119054      0.00000000
    H     -1.23148895      0.92119054      0.00000000
 
 
 
