#p b3lyp 6-311+g(3df,2p) scf=tight nosymm

32

0    1
    O      0.00000000      0.00000000     -1.19320279
    C      0.00000000      0.00000000      0.00684058
    H     -0.93838032      0.00000000      0.59318111
    H      0.93838032      0.00000000      0.59318111
 
 
 
