#p b3lyp 6-311+g(3df,2p) scf=tight nosymm

34

0    1
    N      0.00000000      0.00000000     -0.54542909
    N      0.00000000      0.00000000      0.54542909
 
 
 
