#p b3lyp 6-311+g(3df,2p) scf=tight nosymm

40

0    1
    C      0.00000000      0.00000000      0.00000000
    O      0.00000000      0.00000000      1.16054642
    O      0.00000000      0.00000000     -1.16054642
 
 
 
