#p b3lyp 6-311+g(3df,2p) scf=tight nosymm

47

0    1
   Si      0.00000000      0.00000000     -0.76146821
    O      0.00000000      0.00000000      0.76146821
 
 
 
