#p b3lyp 6-311+g(3df,2p) scf=tight nosymm

56

0    1
    S      0.00000000      0.00000000      0.49763433
    O     -1.24891404      0.00000000     -0.24881717
    O      1.24891404      0.00000000     -0.24881717
 
 
 
