#p b3lyp 6-311+g(3df,2p) scf=tight nosymm

57

0    1
    B      0.00000000      0.00000000      0.00000000
    F      0.65836692      1.14032495      0.00000000
    F      0.65836692     -1.14032495      0.00000000
    F     -1.31673383      0.00000000      0.00000000
 
 
 
