#p b3lyp 6-311+g(3df,2p) scf=tight nosymm

58

0    1
    B      0.00000000      0.00000000      0.00000000
   Cl      0.87527920      1.51602805      0.00000000
   Cl      0.87527920     -1.51602805      0.00000000
   Cl     -1.75055840      0.00000000      0.00000000
 
 
 
