#p b3lyp 6-311+g(3df,2p) scf=tight nosymm

59

0    1
   Al      0.00000000      0.00000000      0.00000000
    F      0.82189010      1.42355541      0.00000000
    F      0.82189010     -1.42355541      0.00000000
    F     -1.64378020      0.00000000      0.00000000
 
 
 
