#p b3lyp 6-311+g(3df,2p) scf=tight nosymm

6

0    1
    C      0.00000000      0.00000000      0.46752772
    H     -0.86067249      0.00000000     -0.23376386
    H      0.86067249      0.00000000     -0.23376386
 
 
 
