#p b3lyp 6-311+g(3df,2p) scf=tight nosymm

60

0    1
   Al      0.00000000      0.00000000      0.00000000
   Cl      1.04553969      1.81092787      0.00000000
   Cl      1.04553969     -1.81092787      0.00000000
   Cl     -2.09107938      0.00000000      0.00000000
 
 
 
