#p b3lyp 6-311+g(3df,2p) scf=tight nosymm

61

0    1
    C      0.00000000      0.00000000      0.00000000
    F      0.76656400     -0.76656400      0.76656400
    F     -0.76656400      0.76656400      0.76656400
    F     -0.76656400     -0.76656400     -0.76656400
    F      0.76656400      0.76656400     -0.76656400
 
 
 
