#p b3lyp 6-311+g(3df,2p) scf=tight nosymm

68

0    1
    N      0.00000000      0.00000000     -0.02118611
    N      0.00000000      0.00000000     -1.14244853
    O      0.00000000      0.00000000      1.16363464
 
 
 
