#p b3lyp 6-311+g(3df,2p) scf=tight nosymm

73

0    1
    O      0.00000000      0.00000000      0.57855637
    F     -1.10933920      0.00000000     -0.28927818
    F      1.10933920      0.00000000     -0.28927818
 
 
 
