#p b3lyp 6-311+g(3df,2p) scf=tight nosymm

88

0    1
    C      0.00000000     -0.66758517      0.92642365
    C      0.00000000     -0.78551061     -0.58522122
    C      0.00000000      0.78551061     -0.58522122
    C      0.00000000      0.66758517      0.92642365
    H      0.00000000     -1.41045913      1.71319196
    H      0.88703947     -1.24267432     -1.02719720
    H     -0.88703947     -1.24267432     -1.02719720
    H     -0.88703947      1.24267432     -1.02719720
    H      0.88703947      1.24267432     -1.02719720
    H      0.00000000      1.41045913      1.71319196
 
 
 
