#p b3lyp 6-311+g(3df,2p) scf=tight nosymm

bz_k+

1    1
    C      1.21158637      0.69950972     -0.20294687
    C      1.21158637     -0.69950972     -0.20294687
    C      0.00000000     -1.39901943     -0.20294687
    C     -1.21158637     -0.69950972     -0.20294687
    C     -1.21158637      0.69950972     -0.20294687
    C      0.00000000      1.39901943     -0.20294687
    H      2.14791737      1.24010067     -0.24361532
    H      2.14791737     -1.24010067     -0.24361532
    H      0.00000000     -2.48020134     -0.24361532
    H     -2.14791737     -1.24010067     -0.24361532
    H     -2.14791737      1.24010067     -0.24361532
    H      0.00000000      2.48020134     -0.24361532
    K      0.00000000      0.00000000      2.67937314
 
 
 
