#p b3lyp 6-311+g(3df,2p) scf=tight nosymm

k2

0    1
    K      0.00000000      0.00000000      2.01273295
    K      0.00000000      0.00000000     -2.01273295
 
 
 
