#p b3lyp 6-311+g(3df,2p) scf=tight nosymm

li2

0    1
   Li      0.00000000      0.00000000      1.34856483
   Li      0.00000000      0.00000000     -1.34856483
 
 
 
