#p b3lyp 6-311+g(3df,2p) scf=tight nosymm

na2

0    1
   Na      0.00000000      0.00000000      1.50800812
   Na      0.00000000      0.00000000     -1.50800812
 
 
 
