#p b3lyp 6-311+g(3df,2p) scf=tight nosymm

al2br6

0    1
   Al      0.00000000      0.00000000      1.67969029
   Al      0.00000000      0.00000000     -1.67969029
   Br      0.00000000      1.77545902      0.00000000
   Br      0.00000000     -1.77545902      0.00000000
   Br     -1.96068911      0.00000000      2.77877074
   Br      1.96068911      0.00000000      2.77877074
   Br      1.96068911      0.00000000     -2.77877074
   Br     -1.96068911      0.00000000     -2.77877074
 
 
 
