#p b3lyp 6-311+g(3df,2p) scf=tight nosymm

al2cl6

0    1
   Al      0.00000000      0.00000000      1.59543840
   Al      0.00000000      0.00000000     -1.59543840
   Cl      0.00000000      1.62307927      0.00000000
   Cl      0.00000000     -1.62307927      0.00000000
   Cl     -1.82122821      0.00000000      2.60429362
   Cl      1.82122821      0.00000000      2.60429362
   Cl      1.82122821      0.00000000     -2.60429362
   Cl     -1.82122821      0.00000000     -2.60429362
 
 
 
