#p b3lyp 6-311+g(3df,2p) scf=tight nosymm

al2f6

0    1
   Al      0.00000000      0.00000000      1.37692670
   Al      0.00000000      0.00000000     -1.37692670
    F      0.00000000      1.16803820      0.00000000
    F      0.00000000     -1.16803820      0.00000000
    F     -1.44151729      0.00000000      2.14604608
    F      1.44151729      0.00000000      2.14604608
    F      1.44151729      0.00000000     -2.14604608
    F     -1.44151729      0.00000000     -2.14604608
 
 
 
