#p b3lyp 6-311+g(3df,2p) scf=tight nosymm

al2me4

0    1
    C      1.75852951      0.00000000      2.19220144
   Al      0.00000000      0.00000000      1.31372259
    C     -1.75852951      0.00000000      2.19220144
    H      0.00000000      1.14812573      0.00000000
   Al      0.00000000      0.00000000     -1.31372259
    C      1.75852951      0.00000000     -2.19220144
    H      0.00000000     -1.14812573      0.00000000
    C     -1.75852951      0.00000000     -2.19220144
    H     -1.88047833     -0.87780045     -2.83052314
    H     -2.57966323      0.00000000     -1.47383821
    H     -1.88047833      0.87780045     -2.83052314
    H      1.88047833     -0.87780045     -2.83052314
    H      1.88047833      0.87780045     -2.83052314
    H      2.57966323      0.00000000     -1.47383821
    H     -1.88047833     -0.87780045      2.83052314
    H     -1.88047833      0.87780045      2.83052314
    H     -2.57966323      0.00000000      1.47383821
    H      1.88047833     -0.87780045      2.83052314
    H      2.57966323      0.00000000      1.47383821
    H      1.88047833      0.87780045      2.83052314
 
 
 
