#p b3lyp 6-311+g(3df,2p) scf=tight nosymm

albr3

0    1
   Al      0.00000000      0.00000000      0.00000000
   Br      1.11890693      1.93800365      0.00000000
   Br      1.11890693     -1.93800365      0.00000000
   Br     -2.23781385      0.00000000      0.00000000
 
 
 
