#p b3lyp 6-311+g(3df,2p) scf=tight nosymm

alcl3

0    1
   Al      0.00000000      0.00000000      0.00000000
   Cl      1.03810275      1.79804671      0.00000000
   Cl      1.03810275     -1.79804671      0.00000000
   Cl     -2.07620550      0.00000000      0.00000000
 
 
 
