#p b3lyp 6-311+g(3df,2p) scf=tight nosymm

alf3

0    1
   Al      0.00000000      0.00000000      0.00000000
    F      0.81757977      1.41608970      0.00000000
    F      0.81757977     -1.41608970      0.00000000
    F     -1.63515954      0.00000000      0.00000000
 
 
 
