#p b3lyp 6-311+g(3df,2p) scf=tight nosymm

alh3

0    1
   Al      0.00000000      0.00000000      0.00000000
    H      0.78925909      1.36703685      0.00000000
    H      0.78925909     -1.36703685      0.00000000
    H     -1.57851818      0.00000000      0.00000000
 
 
 
