#p b3lyp 6-311+g(3df,2p) scf=tight nosymm

alme3

0    1
    C     -0.04486695      1.97248238      0.00000000
   Al      0.00000000      0.00000000      0.00000000
    C      1.73065332     -0.94738527      0.00000000
    C     -1.68578637     -1.02509711      0.00000000
    H      0.94485109      2.43024589      0.00000000
    H     -0.58419269      2.34922691      0.87353383
    H     -0.58419269      2.34922691     -0.87353383
    H      2.32658653     -0.66868775     -0.87353383
    H      2.32658653     -0.66868775      0.87353383
    H      1.63222914     -2.03338799      0.00000000
    H     -2.57708022     -0.39685790      0.00000000
    H     -1.74239384     -1.68053917      0.87353383
    H     -1.74239384     -1.68053917     -0.87353383
 
 
 
