xc                      pbe                  
total_energy_method     rpa
relativistic            none
occupation_type         integer 0.0001
mixer                   pulay
n_max_pulay             10
charge_mix_param        0.6
sc_accuracy_rho         1E-6
sc_accuracy_eev         1E-4
sc_accuracy_etot        1E-6
sc_iter_limit           200
rpa_frozen_core         1
charge                  0     
################################################################################
#
#  FHI-aims code project
# Igor Ying Zhang and Xinguo Ren, Fritz Haber Institute Berlin, 2012
#
#  Suggested "cc-pVDZ" defaults for O atom (to be pasted into control.in file)
#
################################################################################
  species        O
#     global species definitions
    nucleus             8
    mass                15.9994
#
    l_hartree           6
#
    cut_pot             4.0  2.0  1.0
    basis_dep_cutoff    0e-0
#
    radial_base         36 7.0
    radial_multiplier   6
    angular_grids       specified
      division   0.1817   50
      division   0.3417  110
      division   0.4949  194
      division   0.6251  302
      division   0.8014  434
#      division   0.8507  590
#      division   0.8762  770
#      division   0.9023  974
#      division   1.2339 1202
#      outer_grid 974
      outer_grid  434
################################################################################
#
#  Definition of "minimal" basis
#
################################################################################
#     valence basis states
    valence      2  s   2.
    valence      2  p   4.
#     ion occupancy
    ion_occ      2  s   1.
    ion_occ      2  p   3.
################################################################################
#
#   For exact comparison with all GTO-based codes, one or more of
#   the following flags are needed:
#
    include_min_basis   .false.
    pure_gauss          .true.
#

# O cc-pVDZ
 gaussian 0 8
     11720.0000000            0.0007100  
      1759.0000000            0.0054700  
       400.8000000            0.0278370  
       113.7000000            0.1048000  
        37.0300000            0.2830620  
        13.2700000            0.4487190  
         5.0250000            0.2709520  
         1.0130000            0.0154580  
 gaussian 0 8
     11720.0000000           -0.0001600  
      1759.0000000           -0.0012630  
       400.8000000           -0.0062670  
       113.7000000           -0.0257160  
        37.0300000           -0.0709240  
        13.2700000           -0.1654110  
         5.0250000           -0.1169550  
         1.0130000            0.5573680  
 gaussian 0 1 0.3023000
 gaussian 1 3
        17.7000000            0.0430180  
         3.8540000            0.2289130  
         1.0460000            0.5087280  
 gaussian 1 1 0.2753000
 gaussian 2 1 1.1850000
################################################################################
#
#  FHI-aims code project
# Igor Ying Zhang and Xinguo Ren, Fritz Haber Institute Berlin, 2012
#
#  Suggested "cc-pVDZ" defaults for H atom (to be pasted into control.in file)
#
################################################################################
  species        H
#     global species definitions
    nucleus             1
    mass                1.00794
#
    l_hartree           6
#
    cut_pot             4.0  2.0  1.0
    basis_dep_cutoff    0e-0
#     
    radial_base         24 7.0
    radial_multiplier   6
    angular_grids       specified
      division   0.1930   50
      division   0.3175  110
      division   0.4293  194
      division   0.5066  302
      division   0.5626  434
#      division   0.5922  590
#      division   0.6227  974
#      division   0.6868 1202
#      outer_grid  770
      outer_grid  434
################################################################################
#
#  Definition of "minimal" basis
#
################################################################################
#     valence basis states
    valence      1  s   1.
#     ion occupancy
    ion_occ      1  s   0.5
################################################################################
#
#   For exact comparison with all GTO-based codes, one or more of
#   the following flags are needed:
#
    include_min_basis   .false.
    pure_gauss          .true.
#

# H cc-pVDZ
 gaussian 0 3
        13.0100000            0.0196850  
         1.9620000            0.1379770  
         0.4446000            0.4781480  
 gaussian 0 1 0.1220000
 gaussian 1 1 0.7270000
