%nproc=8
#P B3LYP/6-311+g(3df,2p) scf=tight iop(5/33=1)
extraoverlay

8/10=90/1;9/16=-3/6;
3/5=7,6=2,8=1,11=2,16=1,25=1,30=1,67=1,74=205/1,2,3;
5/5=2,6=-2,32=1,33=1,38=5/2;

HCOOH-HCOOH HB6

0   1
      C           -.120234    1.914070     .000000
      H           -.167295    3.007018     .000000
      O          -1.121857    1.220982     .000000
      O           1.121857    1.480489     .000000
      H           1.127582     .489024     .000000
      O           1.121857   -1.220982     .000000
      C            .120234   -1.914070     .000000
      O          -1.121857   -1.480489     .000000
      H          -1.127582    -.489024     .000000
      H            .167295   -3.007018     .000000
 



