%nproc=8
#P B3LYP/6-311+g(3df,2p) scf=tight iop(5/33=1)
extraoverlay

8/10=90/1;9/16=-3/6;
3/5=7,6=2,8=1,11=2,16=1,25=1,30=1,67=1,74=205/1,2,3;
5/5=2,6=-2,32=1,33=1,38=5/2;

C2H4-F2  CT1
   
0   1
      C                   0.000000   -2.192850   -0.668395
      C                  -0.000000   -2.192860    0.668395
      H                  -0.925187   -2.192316   -1.233982
      H                   0.925187   -2.192325   -1.233983
      H                  -0.925187   -2.192320    1.233982
      H                   0.925187   -2.192311    1.233982
      F                   0.000000    0.785688    0.000000
      F                   0.000000    2.205648    0.000001
      
      
      
      
