%nproc=8
#P B3LYP/6-311+g(3df,2p) scf=tight iop(5/33=1)
extraoverlay

8/10=90/1;9/16=-3/6;
3/5=7,6=2,8=1,11=2,16=1,25=1,30=1,67=1,74=205/1,2,3;
5/5=2,6=-2,32=1,33=1,38=5/2;

NH3-F2  CT2

0   1
      N                 0.000000    0.000000   -2.149985
      H                 0.000000    0.939652   -2.534401
      H                 0.813762   -0.469826   -2.534401
      H                -0.813762   -0.469826   -2.534401
      F                 0.000000    0.000000    0.545771
      F                 0.000000    0.000000    1.971240






