%nproc=8
#P B3LYP/6-311+g(3df,2p) scf=tight iop(5/33=1)
extraoverlay

8/10=90/1;9/16=-3/6;
3/5=7,6=2,8=1,11=2,16=1,25=1,30=1,67=1,74=205/1,2,3;
5/5=2,6=-2,32=1,33=1,38=5/2;

HCN-CH3SH  DI5

0   1
      C            1.996443    0.057185   -0.006483 
      N            2.980218    0.658345    0.109450 
      H            1.072341   -0.485189   -0.106416 
      S           -1.514399   -0.799994   -0.116979 
      C           -1.570144    1.012974    0.011607 
      H           -1.554579   -1.052600    1.200492 
      H           -1.545560    1.392381   -1.010196 
      H           -0.708661    1.402553    0.553097 
      H           -2.493145    1.339923    0.486654  



