%nproc=8
#P TPSSTPSS/6-311+g(3df,2p) scf=tight iop(3/76=0500005000,5/33=1) 

10; geometry from JPCA, 2005, 109, 2012-2018

0 2
 N     0.000000     0.000000     0.000000
 H     0.000000     0.000000     1.024047
 H     0.997157     0.000000    -0.233135
 




