%nproc=8
#P TPSSTPSS/6-311+g(3df,2p) scf=tight iop(3/76=0500005000,5/33=1) 

14; geometry from JPCA, 2005, 109, 2012-2018

0 1
F  0.000  0.000  0.000
H  0.91538107  0.000  0.000
 



