%nproc=8
#P TPSSTPSS/6-311+g(3df,2p) scf=tight iop(3/76=0500005000,5/33=1) 

15; geometry from JPCA, 2005, 109, 2012-2018

0 3
O   0.000   0.000   0.00




