%nproc=8
#P TPSSTPSS/6-311+g(3df,2p) scf=tight iop(3/76=0500005000,5/33=1) 

17; geometry from JPCA, 2005, 109, 2012-2018

0 2
P        0.000000    0.000000   -0.115657
H        1.020130    0.000000    0.867427
H       -1.020130    0.000000    0.867427





