%nproc=8
#P TPSSTPSS/6-311+g(3df,2p) scf=tight iop(3/76=0500005000,5/33=1) 

18; geometry from JPCA, 2005, 109, 2012-2018

0 1
S        0.000000    0.000000    0.102519
H        0.000000    0.966249   -0.820154
H        0.000000   -0.966249   -0.820154
 



