%nproc=8
#P TPSSTPSS/6-311+g(3df,2p) scf=tight iop(3/76=0500005000,5/33=1) 

2; geometry from JPCA, 2005, 109, 2012-2018

0 1
Cl  0.00000000   0.00000000  0.00000000000
H   1.27444789   0.00000000  0.000000000

 
