%nproc=8
#P TPSSTPSS/6-311+g(3df,2p) scf=tight iop(3/76=0500005000,5/33=1) 

20; geometry from JPCA, 2005, 109, 2012-2018

0 3
N  0.000  0.000  0.000
H  1.03673136  0.000  0.000

 



