%nproc=8
#P TPSSTPSS/6-311+g(3df,2p) scf=tight iop(3/76=0500005000,5/33=1) 

3; geometry from JPCA, 2005, 109, 2012-2018

0 1
H   0.0000000   0.00000000  0.000000000
H   0.74187646  0.00000000  0.00000000


