%nproc=8
#P TPSSTPSS/6-311+g(3df,2p) scf=tight iop(3/76=0500005000,5/33=1) 

4; geometry from JPCA, 2005, 109, 2012-2018

0  2
Cl  0.0000 0.0000 0.0000


 



