%nproc=8
#P TPSSTPSS/6-311+g(3df,2p) scf=tight iop(3/76=0500005000,5/33=1) 

5; geometry from JPCA, 2005, 109, 2012-2018

0 2
O   0.0000000   0.00000000   0.00000000
H   0.96889819  0.00000000   0.0000000
 


