%nproc=8
#P TPSSTPSS/6-311+g(3df,2p) scf=tight iop(3/76=0500005000,5/33=1) 

6; geometry from JPCA, 2005, 109, 2012-2018

0 1
 O     0.000000     0.000000     0.000000
 H     0.000000     0.000000     0.956914
 H     0.926363     0.000000    -0.239868





