%nproc=8
#P TPSSTPSS/6-311+g(3df,2p) scf=tight iop(3/76=0500005000,5/33=1) 

7; geometry from JPCA, 2005, 109, 2012-2018

0  2
 C     0.000000     0.000000     0.000000
 H     0.000000     0.000000     1.077317
 H     0.932984     0.000000    -0.538659
 H    -0.932984     0.000000    -0.538659



