%nproc=8
#P TPSSTPSS/6-311+g(3df,2p) scf=tight iop(3/76=0500005000,5/33=1) 

9; geometry from JPCA, 2005, 109, 2012-2018

0 1
N        0.000000    0.000000    0.112890
H        0.000000    0.938024   -0.263409
H        0.812353   -0.469012   -0.263409
H       -0.812353   -0.469012   -0.263409
      
      


