$molecule
0    1
    C      0.00000000      0.00000000      0.66559380
    C      0.00000000      0.00000000     -0.66559380
    H      0.00000000      0.92149332      1.23167054
    H      0.00000000     -0.92149332      1.23167054
    H      0.00000000      0.92149332     -1.23167054
    H      0.00000000     -0.92149332     -1.23167054
$end
   
$rem
mem_static = 200
mem_total  = 7500
exchange = b3lyp
basis = G3Large
max_scf_cycles = 50
scf_convergence = 7
symmetry = false
xc_grid = 000075000302
$end
