$molecule
0    1
    C      0.00000000      0.00000000      0.06556636
    F      0.00000000      0.00000000     -1.31562849
    H      0.51491630     -0.89186118      0.41668738
    H      0.51491630      0.89186118      0.41668738
    H     -1.02983259      0.00000000      0.41668738
$end
   
$rem
mem_static = 200
mem_total  = 7500
exchange = b3lyp
basis = G3Large
max_scf_cycles = 50
scf_convergence = 7
symmetry = false
xc_grid = 000075000302
$end
