$molecule
0    1
    C     -0.04642302      0.66306963      0.00000000
    O     -0.04642302     -0.75506179      0.00000000
    H     -1.08695645      0.97594036      0.00000000
    H      0.86059031     -1.05704206      0.00000000
    H      0.43814497      1.07159443      0.88954160
    H      0.43814497      1.07159443     -0.88954160
$end
   
$rem
mem_static = 200
mem_total  = 7500
exchange = b3lyp
basis = G3Large
max_scf_cycles = 50
scf_convergence = 7
symmetry = false
xc_grid = 000075000302
$end
