$molecule
0    2
    H     -0.85205468      1.22789221      0.00000000
    C      0.06086120      0.58465615      0.00000000
    O      0.06086120     -0.59197467      0.00000000
$end
   
$rem
mem_static = 200
mem_total  = 7500
exchange = b3lyp
basis = G3Large
max_scf_cycles = 50
scf_convergence = 7
symmetry = false
xc_grid = 000075000302
$end
