$molecule
-1    1
    C     -1.29799761     -0.38951835     -0.00003400
    O     -0.47722312      0.72802084      0.00005400
    H     -2.35192282     -0.08023226     -0.00863903
    H     -1.14085315     -1.03582205     -0.87810079
    H     -1.15317768     -1.02751397      0.88636124
    H      0.51058034      0.37116013      0.00024300
    F      1.74901535     -0.19051703     -0.00001000
$end
   
$rem
mem_static = 200
mem_total  = 7500
exchange = b3lyp
basis = G3Large
max_scf_cycles = 50
scf_convergence = 7
symmetry = false
xc_grid = 000075000302
$end
