$molecule
0    1
    P      0.00000000      0.00000000      0.56884910
    H      0.59567097      1.03173239     -0.18961637
    H      0.59567097     -1.03173239     -0.18961637
    H     -1.19134194      0.00000000     -0.18961637
$end
   
$rem
mem_static = 200
mem_total  = 7500
exchange = b3lyp
basis = G3Large
max_scf_cycles = 50
scf_convergence = 7
symmetry = false
xc_grid = 000075000302
$end
