$molecule
0    3
   Cl      0.01882003     -0.81730362      0.00000000
    H     -0.47048828      0.56947935      0.00000000
    O      0.01882003      1.66557998      0.00000000
$end
   
$rem
mem_static = 200
mem_total  = 7500
exchange = b3lyp
basis = G3Large
max_scf_cycles = 50
scf_convergence = 7
symmetry = false
xc_grid = 000075000302
$end
