$molecule
0    1
    C     -1.29962219     -0.90485599     -0.02015498
    C     -1.20594724      0.50581721     -0.01341401
    C      0.00000000      1.18336195      0.15330105
    C      1.20594724      0.50581404     -0.01342200
    C      1.29962748     -0.90485069     -0.02014699
    H      2.16879575     -1.32755216     -0.51569695
    H      1.03204373     -1.45438535      0.87316886
    H      2.03713117      1.08558588     -0.39850431
    H      0.00000100      2.26291521      0.08590504
    H     -2.03713117      1.08558588     -0.39848102
    H     -2.16879575     -1.32754157     -0.51571600
    H     -0.00001100     -1.18194376     -0.52080827
    H     -1.03205960     -1.45439594      0.87315827
$end
   
$rem
mem_static = 200
mem_total  = 7500
exchange = b3lyp
basis = G3Large
max_scf_cycles = 50
scf_convergence = 7
symmetry = false
xc_grid = 000075000302
$end
