lattice_vector 0.0000 2.2521 2.2521
lattice_vector 2.2521 0.0000 2.2521
lattice_vector 2.2521 2.2521 0.0000

atom   0.0000 0.0000 0.0000 Na
atom   2.2521 2.2521 2.2521 F
