$molecule
0    1
    O     -2.97035283     -0.10573749     -0.00014599
    H     -3.29737262      0.79483368     -0.00000000
    H     -2.01142715     -0.00000000     -0.00000000
    O     -0.00212713      0.00000000      0.00000000
    H      0.55260403     -0.20431431      0.75597387
    H      0.55233036     -0.20488064     -0.75603256
$end
   
$rem
mem_static = 200
mem_total  = 7500
exchange = b3lyp
basis = G3Large
max_scf_cycles = 50
scf_convergence = 7
symmetry = false
xc_grid = 000075000302
$end
