$molecule
0    1
    O     -2.90611406     -0.15862049     -0.13249950
    H     -3.30283489      0.70335373     -0.00000000
    H     -1.96234680     -0.00000000     -0.00000000
    O      0.00485000      0.00000000      0.00000000
    H      0.55914471     -0.11500362      0.77540963
    C      0.72421777     -0.50299771     -1.12303759
    H      0.08171265     -0.37314844     -1.98734855
    H      1.64914703      0.04857357     -1.28945362
    H      0.95010722     -1.56402093     -1.01921345
$end
   
$rem
mem_static = 200
mem_total  = 7500
exchange = b3lyp
basis = G3Large
max_scf_cycles = 50
scf_convergence = 7
symmetry = false
xc_grid = 000075000302
$end
