$molecule
0    1
    O     -2.97821428     -0.09986234     -0.00874172
    H     -3.30143673      0.80186438     -0.00000000
    H     -2.01196375     -0.00000000     -0.00000000
    N      0.05338483      0.00000000      0.00000000
    H      0.67685511     -0.58582471     -0.54077316
    H     -0.10721369     -0.49961523      0.86535433
    C      0.70810527      1.27963793      0.28640281
    H      0.03831350      1.89705928      0.88003342
    H      1.65700637      1.19698549      0.82057089
    H      0.89066968      1.80309963     -0.64892475
$end
   
$rem
mem_static = 200
mem_total  = 7500
exchange = b3lyp
basis = G3Large
max_scf_cycles = 50
scf_convergence = 7
symmetry = false
xc_grid = 000075000302
$end
