$molecule
0    1
    O      0.96625054     -0.09986234      0.00874172
    H      1.28947298      0.80186438      0.00000000
    H      0.00000000     -0.00000000      0.00000000
    N     -1.93090408      1.00598187      0.00000000
    H     -2.45725750      0.63342005      0.78005843
    H     -2.43497222      0.72009977     -0.82971809
    C     -1.90614149      2.46928380      0.07932811
    H     -1.35213659      2.86236568     -0.76966696
    H     -2.89044511      2.94213293      0.09117553
    H     -1.37632524      2.76783575      0.98062775
$end
   
$rem
mem_static = 200
mem_total  = 7500
exchange = b3lyp
basis = G3Large
max_scf_cycles = 50
scf_convergence = 7
symmetry = false
xc_grid = 000075000302
$end
