$molecule
0    1
    O     -2.97821428     -0.09986234     -0.00874172
    H     -3.30143673      0.80186438     -0.00000000
    H     -2.01196375     -0.00000000     -0.00000000
    N      0.04904620      0.00000000      0.00000000
    H      0.57539963     -0.37256182     -0.78005843
    H      0.55311435     -0.28588210      0.82971809
    C      0.02428362      1.46330193     -0.07932811
    H     -0.52972129      1.85638380      0.76966696
    H      1.00858723      1.93615106     -0.09117553
    H     -0.50553263      1.76185388     -0.98062775
$end
   
$rem
mem_static = 200
mem_total  = 7500
exchange = b3lyp
basis = G3Large
max_scf_cycles = 50
scf_convergence = 7
symmetry = false
xc_grid = 000075000302
$end
