$molecule
0    1
    O      0.94478958     -0.21968068      0.00848481
    H      1.37873790      0.63437239     -0.00000000
    H      0.00000000      0.00000000      0.00000000
    C     -2.58479623     -1.30196364      0.05977327
    H     -3.53404133     -1.83080104      0.08971657
    H     -1.98680082     -1.57532259      0.92551872
    H     -2.02369025     -1.60855499     -0.81943075
    C     -2.74139646      0.19699476      0.03449353
    O     -1.77106261      0.95240338      0.00000000
    N     -4.01766176      0.65386017      0.05218403
    H     -4.75934900     -0.02119095      0.08072385
    C     -4.33828291      2.06441773      0.03249787
    H     -3.39830947      2.60543259      0.00103092
    H     -4.92708208      2.31974214     -0.84636131
    H     -4.88722952      2.35372005      0.92646241
$end
   
$rem
mem_static = 200
mem_total  = 7500
exchange = b3lyp
basis = G3Large
max_scf_cycles = 50
scf_convergence = 7
symmetry = false
xc_grid = 000075000302
$end
