$molecule
0    1
    O     -2.84959633     -0.21968068     -0.00848481
    H     -3.28354465      0.63437239      0.00000000
    H     -1.90480675     -0.00000000      0.00000000
    C     -0.32513664     -2.35920591     -0.26299993
    H      0.17277552     -3.29181509     -0.01010575
    H     -0.45912837     -2.29694401     -1.34003683
    H     -1.31832608     -2.34416882      0.17879923
    C      0.42874169     -1.13936998      0.20144245
    O      0.01084606      0.00000000      0.00000000
    N      1.59261444     -1.38184558      0.85297748
    H      1.87084407     -2.33730062      0.98065848
    C      2.43402656     -0.32057747      1.36149861
    H      1.94757931      0.61794186      1.11698306
    H      2.54675506     -0.39385963      2.44140160
    H      3.41799037     -0.34450762      0.89732904
$end
   
$rem
mem_static = 200
mem_total  = 7500
exchange = b3lyp
basis = G3Large
max_scf_cycles = 50
scf_convergence = 7
symmetry = false
xc_grid = 000075000302
$end
