$molecule
0    1
    O     -2.93895711      0.08007877     -0.00285958
    H     -1.96936137      0.00000000      0.00000000
    C     -3.23227847      1.45833936      0.00000000
    H     -4.31409889      1.56812610     -0.00184960
    H     -2.84781661      1.97023329      0.88746125
    H     -2.84431892      1.97461483     -0.88338715
    N      0.06006054      0.00000000      0.00000000
    H     -0.04213371     -0.52916603     -0.85661804
    H      0.76958781     -0.48273762      0.53645227
    C      0.51934299      1.35715254     -0.31294663
    H      0.63908922      1.91384389      0.61327520
    H      1.46126693      1.40309833     -0.86341101
    H     -0.24292419      1.86330587     -0.90020491
$end
   
$rem
mem_static = 200
mem_total  = 7500
exchange = b3lyp
basis = G3Large
max_scf_cycles = 50
scf_convergence = 7
symmetry = false
xc_grid = 000075000302
$end
