$molecule
0    1
    O     -2.83357582      0.16519578      0.08636954
    H     -1.88111951      0.00000000     -0.00000000
    C     -3.27174157     -0.56587022      1.21095267
    H     -4.33456036     -0.37371974      1.33590575
    H     -3.13528090     -1.64309268      1.08899313
    H     -2.76471207     -0.26236410      2.13170015
    C     -0.65586985      2.11231450      0.84468327
    H     -0.23145954      3.08983707      1.05999771
    H     -1.22831999      1.77853183      1.70871448
    H     -1.34004393      2.18054712      0.00339490
    C      0.39281658      1.07505004      0.53419184
    O      0.12020077      0.00000000      0.00000000
    N      1.66016169      1.38893235      0.88909685
    H      1.82386350      2.24935455      1.37816109
    C      2.74794710      0.45220450      0.69980401
    H      2.59600587     -0.07179959     -0.23866833
    H      3.68697063      0.99629134      0.66384686
    H      2.79062399     -0.28625225      1.49952605
$end
   
$rem
mem_static = 200
mem_total  = 7500
exchange = b3lyp
basis = G3Large
max_scf_cycles = 50
scf_convergence = 7
symmetry = false
xc_grid = 000075000302
$end
