$molecule
0    1
    O     -2.95002633     -0.00082255     -0.00068712
    H     -1.98521145      0.00000000     -0.00000000
    C     -3.36739540      1.34907361      0.00000000
    H     -4.45412718      1.35333597     -0.00027378
    H     -3.02813848      1.89153543      0.88569549
    H     -3.02767129      1.89261044     -0.88486244
    O      0.05087487      0.00000000      0.00000000
    H      0.79805383     -0.40763820      0.44330981
    H      0.04139319     -0.41149480     -0.86692493
$end
   
$rem
mem_static = 200
mem_total  = 7500
exchange = b3lyp
basis = G3Large
max_scf_cycles = 50
scf_convergence = 7
symmetry = false
xc_grid = 000075000302
$end
