$molecule
0    1
    N     -3.17657760      0.47032238      0.00000000
    H     -2.27660219     -0.00000000      0.00000000
    H     -3.82813386     -0.16547113     -0.44087101
    C     -3.59389155      0.70373531      1.38084680
    H     -4.56235447      1.20056194      1.39094125
    H     -3.67001128     -0.19306070      2.00386482
    H     -2.88475372      1.37743047      1.85843182
    N      0.04724488      0.00000000      0.00000000
    H     -0.30787523      0.03765438     -0.94698182
    H      0.88911090     -0.55917711     -0.04658091
    C      0.38184799      1.35631200      0.44456475
    H      0.81131719      1.30532932      1.44272876
    H      1.08488475      1.89076899     -0.19904456
    H     -0.53415309      1.93848226      0.51329158
$end
   
$rem
mem_static = 200
mem_total  = 7500
exchange = b3lyp
basis = G3Large
max_scf_cycles = 50
scf_convergence = 7
symmetry = false
xc_grid = 000075000302
$end
