$molecule
0    1
    N      0.89997541      0.47032238     -0.00000000
    H     -0.00000000     -0.00000000     -0.00000000
    H      1.55153168     -0.16547113      0.44087101
    C      1.31728937      0.70373531     -1.38084680
    H      2.28575228      1.20056194     -1.39094125
    H      1.39340910     -0.19306070     -2.00386482
    H      0.60815153      1.37743047     -1.85843182
    N     -2.05188902     -1.13830109      0.00000000
    H     -2.21443128     -1.18866538      0.99767036
    H     -2.42387010     -1.99874658     -0.38059276
    C     -2.78849516      0.00255334     -0.55230592
    H     -2.65288803      0.02197643     -1.63147591
    H     -3.86169224      0.00008051     -0.34644229
    H     -2.36281989      0.92054938     -0.15382456
$end
   
$rem
mem_static = 200
mem_total  = 7500
exchange = b3lyp
basis = G3Large
max_scf_cycles = 50
scf_convergence = 7
symmetry = false
xc_grid = 000075000302
$end
