$molecule
0    1
    C      0.73836405      2.37693595      0.57349118
    H     -0.28104831      2.05431273      0.77034752
    H      0.72746607      3.21027701     -0.12569857
    H      1.19228422      2.73057352      1.49591968
    C      1.60548706      1.27917410      0.00000000
    O      2.79654211      1.44602380     -0.24171972
    N      0.97305151      0.10567720     -0.24027936
    H      0.00000000     -0.00000000      0.00000000
    C      1.70869441     -1.01460976     -0.78255475
    H      2.24124361     -0.71520402     -1.68250986
    H      2.44491019     -1.38962173     -0.07256534
    H      1.00874371     -1.80916656     -1.02435895
    O     -1.92380543     -0.00000000     -1.00740139
    H     -2.83431565     -0.28044986     -0.89065241
    C     -1.84450817      0.74975901     -2.21558263
    H     -0.80858420      1.05633677     -2.32338707
    H     -2.12072421      0.15184042     -3.08384493
    H     -2.46836055      1.64295912     -2.18185388
$end
   
$rem
mem_static = 200
mem_total  = 7500
exchange = b3lyp
basis = G3Large
max_scf_cycles = 50
scf_convergence = 7
symmetry = false
xc_grid = 000075000302
$end
