$molecule
0    1
    C      0.91406539      2.33143010      0.52767147
    H     -0.10600208      2.06847585      0.79771911
    H      0.89834815      3.11076724     -0.23145952
    H      1.42754350      2.73202157      1.39794145
    C      1.70524004      1.15525046      0.00000000
    O      2.90360158      1.23926929     -0.25258875
    N      0.99934627      0.01480581     -0.17395388
    H      0.00000000      0.00000000     -0.00000000
    C      1.65412761     -1.16043652     -0.70158943
    H      2.53773065     -1.39876519     -0.11345605
    H      0.96044406     -1.99588712     -0.66089693
    H      1.97517019     -1.01171512     -1.73236066
    N     -2.28353597      1.03286285     -0.00000000
    H     -2.46597479      1.63851832      0.79036973
    H     -3.09598745      0.43318482     -0.07156888
    C     -2.16613647      1.84115852     -1.21924637
    H     -1.98313476      1.18288502     -2.06520332
    H     -3.04089533      2.45432534     -1.44468674
    H     -1.30404763      2.49790049     -1.12910054
$end
   
$rem
mem_static = 200
mem_total  = 7500
exchange = b3lyp
basis = G3Large
max_scf_cycles = 50
scf_convergence = 7
symmetry = false
xc_grid = 000075000302
$end
