$molecule
0    1
    C      0.82164812      2.33052923      0.50294292
    H      1.28894352      2.73639781      1.39672934
    H     -0.20073166      2.03634442      0.72766927
    H      0.82039497      3.11708805     -0.24929677
    C      1.67020801      1.18311120     -0.00000000
    O      2.86949142      1.31936136     -0.22108490
    N      0.99502460      0.02123926     -0.18420489
    H      0.00000000      0.00000000      0.00000000
    C      1.65793020     -1.17287359     -0.65340968
    H      2.69959418     -0.92096032     -0.82783215
    H      1.60299229     -1.97099111      0.08573460
    H      1.21648966     -1.52921881     -1.58371976
    C     -2.81653154      1.31422723     -0.77645627
    H     -3.78278092      1.43356421     -1.26043948
    H     -2.10588281      0.89039284     -1.48095409
    H     -2.44407966      2.29479075     -0.48552113
    C     -2.87261226      0.43650137      0.44923616
    O     -1.85456522      0.00000000      0.98466511
    N     -4.11421751      0.18133011      0.92649673
    H     -4.89723659      0.58299746      0.44396336
    C     -4.34117387     -0.60601070      2.11961661
    H     -3.37510820     -0.97327734      2.44973552
    H     -4.78202132     -0.00280399      2.91096347
    H     -4.99347965     -1.45031546      1.90785278
$end
   
$rem
mem_static = 200
mem_total  = 7500
exchange = b3lyp
basis = G3Large
max_scf_cycles = 50
scf_convergence = 7
symmetry = false
xc_grid = 000075000302
$end
