$molecule
0    1
    C     -2.79097833      2.33052923     -0.50294292
    H     -3.25827373      2.73639781     -1.39672934
    H     -1.76859856      2.03634442     -0.72766927
    H     -2.78972518      3.11708805      0.24929677
    C     -3.63953822      1.18311120      0.00000000
    O     -4.83882163      1.31936136      0.22108490
    N     -2.96435481      0.02123926      0.18420489
    H     -1.96933021      0.00000000      0.00000000
    C     -3.62726041     -1.17287359      0.65340968
    H     -4.66892439     -0.92096032      0.82783215
    H     -3.57232250     -1.97099111     -0.08573460
    H     -3.18581987     -1.52921881      1.58371976
    C      0.61970691      1.16189087      2.00615901
    H      1.19449156      0.96783728      2.90842545
    H     -0.43025333      1.27868391      2.26094765
    H      0.95662838      2.09962641      1.56797585
    C      0.75364491      0.07105121      0.97271859
    O      0.00370649      0.00000000      0.00000000
    N      1.76392312     -0.80687956      1.18020144
    H      2.34307802     -0.67744931      1.98959713
    C      2.05710604     -1.88529167      0.26040748
    H      1.29186914     -1.86756493     -0.50851672
    H      3.03200822     -1.75162859     -0.20449527
    H      2.03248657     -2.84599677      0.76995324
$end
   
$rem
mem_static = 200
mem_total  = 7500
exchange = b3lyp
basis = G3Large
max_scf_cycles = 50
scf_convergence = 7
symmetry = false
xc_grid = 000075000302
$end
