$molecule
0    1
    N      0.63926825      1.08072150     -0.00005584
    H     -0.38509353      1.18540740     -0.00088164
    C      1.13958856     -0.21025887      0.00086656
    O      0.38509353     -1.18540740      0.00088164
    C      2.58328596     -0.30742462      0.00199598
    H      3.03915607     -1.28197198      0.00278180
    C      3.32146540      0.82211419      0.00207068
    H      4.40131055      0.81259997      0.00289917
    N      2.73767618      2.05548389      0.00112400
    H      3.29118307      2.89628763      0.00120366
    C      1.36304154      2.25890560     -0.00000000
    O      0.86835840      3.36616472     -0.00081898
    N     -3.82353105      0.22738870     -2.14607684
    H     -4.16873663      1.15600710     -2.34708206
    C     -4.61549775     -0.84116728     -2.60013599
    O     -5.65490965     -0.62672743     -3.19965867
    C     -4.05569925     -2.13879722     -2.27460193
    H     -4.58803876     -3.02310091     -2.57943344
    C     -2.88773498     -2.21287421     -1.60129381
    H     -2.43060263     -3.15462623     -1.33572931
    N     -2.19623545     -1.10196060     -1.20523891
    H     -1.30927563     -1.17678595     -0.69383905
    C     -2.63448296      0.17082356     -1.46061610
    O     -2.02391649      1.17678595     -1.11089825
$end
   
$rem
mem_static = 200
mem_total  = 7500
exchange = b3lyp
basis = G3Large
max_scf_cycles = 50
scf_convergence = 7
symmetry = false
xc_grid = 000075000302
$end
