$molecule
0    1
    O     -2.96481614      0.00034721      0.05108578
    H     -3.23781226     -0.00608079     -0.86730482
    H     -1.99551991      0.00000000      0.00000000
    N      0.08281638      0.00000000      0.00000000
    C      1.25599700      0.64491988      0.06011045
    H      1.20676422      1.72475454      0.00000000
    C      2.47994307     -0.00311250      0.19481366
    H      3.39389223      0.57148198      0.23772278
    C      2.49614684     -1.39174009      0.27300468
    H      3.42813002     -1.92921625      0.37912514
    C      1.28457242     -2.07228347      0.21341701
    H      1.24375383     -3.15039595      0.27115112
    C      0.11070865     -1.33753532      0.07792383
    H     -0.84973258     -1.83502323      0.03195482
$end
   
$rem
mem_static = 200
mem_total  = 7500
exchange = b3lyp
basis = G3Large
max_scf_cycles = 50
scf_convergence = 7
symmetry = false
xc_grid = 000075000302
$end
