$molecule
0    1
    O      0.96929624      0.00034721     -0.05108578
    H      1.24229235     -0.00608079      0.86730482
    H      0.00000000     -0.00000000      0.00000000
    N     -1.92263474      0.99775995      0.00000000
    C     -1.95070805      2.33622412     -0.06011045
    H     -0.99092741      2.83350461      0.00000000
    C     -3.12389359      3.07217632     -0.19481366
    H     -3.08325475      4.15097675     -0.23772278
    C     -4.33458224      2.39189539     -0.27300468
    H     -5.26604184      2.93027843     -0.37912514
    C     -4.31816289      1.00236948     -0.21341701
    H     -5.23142639      0.42796330     -0.27115112
    C     -3.09492044      0.35314771     -0.07792383
    H     -3.04553699     -0.72736275     -0.03195482
$end
   
$rem
mem_static = 200
mem_total  = 7500
exchange = b3lyp
basis = G3Large
max_scf_cycles = 50
scf_convergence = 7
symmetry = false
xc_grid = 000075000302
$end
