$molecule
0    1
    O      0.96929624      0.00034721     -0.05108578
    H      1.24229235     -0.00608079      0.86730482
    H      0.00000000     -0.00000000      0.00000000
    N     -1.92269563     -0.99775995      0.00000000
    C     -3.09587626     -0.35284008     -0.06011045
    H     -3.04664347      0.72699459      0.00000000
    C     -4.31982233     -1.00087245     -0.19481366
    H     -5.23377149     -0.42627798     -0.23772278
    C     -4.33602609     -2.38950004     -0.27300468
    H     -5.26800927     -2.92697620     -0.37912514
    C     -3.12445168     -3.07004343     -0.21341701
    H     -3.08363308     -4.14815591     -0.27115112
    C     -1.95058790     -2.33529528     -0.07792383
    H     -0.99014667     -2.83278318     -0.03195482
$end
   
$rem
mem_static = 200
mem_total  = 7500
exchange = b3lyp
basis = G3Large
max_scf_cycles = 50
scf_convergence = 7
symmetry = false
xc_grid = 000075000302
$end
