$molecule
0    1
    O      0.96788551      0.08801830      0.00148693
    H     -0.00000000      0.00000000     -0.00000000
    C      1.24276801      1.47118595      0.00000000
    H      2.32311945      1.59407331      0.00309808
    H      0.85086587      1.97760392     -0.88682020
    H      0.84547017      1.98053743      0.88273782
    N     -1.86743617      0.00000000     -0.97639532
    C     -1.89911998     -0.01468529     -2.31605552
    H     -0.93737802     -0.00656926     -2.81306393
    C     -3.07919269     -0.04122012     -3.05271016
    H     -3.04241981     -0.05252533     -4.13249109
    C     -4.29213979     -0.05352290     -2.37198279
    H     -5.22884430     -0.07502583     -2.91112569
    C     -4.27158004     -0.03851229     -0.98122763
    H     -5.18674396     -0.04767223     -0.40713348
    C     -3.04180536     -0.01206866     -0.33093103
    H     -2.98847685     -0.00186185      0.75040371
$end
   
$rem
mem_static = 200
mem_total  = 7500
exchange = b3lyp
basis = G3Large
max_scf_cycles = 50
scf_convergence = 7
symmetry = false
xc_grid = 000075000302
$end
