$molecule
0    1
    C      1.08424053      0.10590206     -0.00035565
    O      0.37457831      1.10399458     -0.00000000
    O      0.61937910     -1.13325520      0.00014103
    H     -0.37457831     -1.10399458      0.00000000
    C      2.58066759      0.16015481     -0.00333229
    H      2.91207855      1.19114822      0.01498987
    H      2.96394838     -0.37662612      0.86103836
    H      2.95683584     -0.34084207     -0.89224863
    C     -3.07229948     -1.47967922      0.00019338
    O     -1.95860447     -1.98919007     -0.00012793
    O     -3.28932142     -0.17401638      0.00022544
    H     -2.41383805      0.29761290      0.00012793
    C     -4.34114724     -2.27484208      0.00088367
    H     -4.11250908     -3.33349078     -0.00156061
    H     -4.92770406     -2.01698512      0.87936429
    H     -4.93121747     -2.01343148     -0.87422434
$end
   
$rem
mem_static = 200
mem_total  = 7500
exchange = b3lyp
basis = G3Large
max_scf_cycles = 50
scf_convergence = 7
symmetry = false
xc_grid = 000075000302
$end
