$molecule
0    1
    C      1.12174674      0.11101601     -0.00178048
    O      0.48869759      1.16920731      0.00000000
    N      0.53044559     -1.09756879     -0.00089306
    H     -0.48869759     -1.16920731     -0.00000000
    H      1.08676866     -1.93010664     -0.00321407
    C      2.63129029      0.12091542     -0.00640868
    H      2.96979338      0.65326086     -0.89179485
    H      3.06995933     -0.87338515      0.00510343
    H      2.97513710      0.67662015      0.86224954
    C     -3.24224377     -1.58657792      0.00037588
    O     -2.16490005     -2.18635856      0.00067007
    N     -3.33457797     -0.24424131     -0.00159522
    H     -2.48784559      0.32743139     -0.00067007
    H     -4.23268066      0.19849560     -0.00079600
    C     -4.54461736     -2.34992511      0.00524116
    H     -5.42147906     -1.70847795     -0.02395096
    H     -4.57971983     -2.96595307      0.90044680
    H     -4.55674658     -3.01687091     -0.85290947
$end
   
$rem
mem_static = 200
mem_total  = 7500
exchange = b3lyp
basis = G3Large
max_scf_cycles = 50
scf_convergence = 7
symmetry = false
xc_grid = 000075000302
$end
