$molecule
0    1
    C      1.08517559      0.07908336      0.00143423
    O      0.41375856      1.10237217     -0.00676747
    O      0.57897977     -1.14472990      0.00892873
    H     -0.41375856     -1.10237217      0.00676747
    C      2.58352513      0.07548138      0.00429758
    H      2.95434337      1.09313851     -0.00301400
    H      2.94198069     -0.45051022      0.88594306
    H      2.94549765     -0.46453293     -0.86736911
    N     -4.47478503      1.84871754      0.00675252
    H     -5.26604426      1.21948908      0.01093094
    C     -4.77433804      3.22383649      0.00569113
    O     -5.93269575      3.60040300      0.00941814
    C     -3.58977988      4.06056274      0.00000000
    H     -3.71216761      5.12983703     -0.00108317
    C     -2.36697920      3.48903702     -0.00379371
    H     -1.45545685      4.06801315     -0.00813048
    N     -2.19166373      2.13217030     -0.00239814
    H     -1.25766208      1.70582019     -0.00510021
    C     -3.23975088      1.25506856      0.00325836
    O     -3.09581127      0.03217035      0.00510021
$end
   
$rem
mem_static = 200
mem_total  = 7500
exchange = b3lyp
basis = G3Large
max_scf_cycles = 50
scf_convergence = 7
symmetry = false
xc_grid = 000075000302
$end
