$molecule
0    1
    C     -2.82316614      0.07908336     -0.00143423
    O     -2.15174910      1.10237217      0.00676747
    O     -2.31697031     -1.14472990     -0.00892873
    H     -1.32423198     -1.10237217     -0.00676747
    C     -4.32151567      0.07548138     -0.00429758
    H     -4.69233391      1.09313851      0.00301400
    H     -4.67997123     -0.45051022     -0.88594306
    H     -4.68348819     -0.46453293      0.86736911
    N      2.22874000     -0.30055981      1.23416684
    H      2.55180972     -1.24111726      1.41586641
    C      3.04831803      0.74055164      1.70857603
    O      4.08200791      0.48748894      2.30107357
    C      2.51936695      2.05745690      1.40975752
    H      3.07362551      2.92228173      1.73100959
    C      1.35289169      2.17390145      0.74067332
    H      0.91778555      3.13107066      0.49447235
    N      0.63456234      1.08647813      0.32433421
    H     -0.25190495      1.18424894     -0.18434783
    C      1.04365976     -0.19715783      0.55399515
    O      0.40709552     -1.18424894      0.18434783
$end
   
$rem
mem_static = 200
mem_total  = 7500
exchange = b3lyp
basis = G3Large
max_scf_cycles = 50
scf_convergence = 7
symmetry = false
xc_grid = 000075000302
$end
