$molecule
0    1
    C      1.08517559      0.07908336      0.00143423
    O      0.41375856      1.10237217     -0.00676747
    O      0.57897977     -1.14472990      0.00892873
    H     -0.41375856     -1.10237217      0.00676747
    C      2.58352513      0.07548138      0.00429758
    H      2.95434337      1.09313851     -0.00301400
    H      2.94198069     -0.45051022      0.88594306
    H      2.94549765     -0.46453293     -0.86736911
    N     -3.77940958     -0.30055981      2.11485782
    H     -4.09830089     -1.24111726      2.30379462
    C     -4.60004901      0.74055164      2.58742862
    O     -5.63001187      0.48748894      3.18638154
    C     -4.07678905      2.05745690      2.27875280
    H     -4.63213078      2.92228173      2.59812876
    C     -2.91410751      2.17390145      1.60309769
    H     -2.48333814      3.13107066      1.34938521
    N     -2.19438258      1.08647813      1.18917579
    H     -1.31061737      1.18424894      0.67581362
    C     -2.59782351     -0.19715783      1.42863407
    O     -1.95941742     -1.18424894      1.06217693
$end
   
$rem
mem_static = 200
mem_total  = 7500
exchange = b3lyp
basis = G3Large
max_scf_cycles = 50
scf_convergence = 7
symmetry = false
xc_grid = 000075000302
$end
