$molecule
0    1
    C     -2.92871784      0.15328925     -0.00451777
    O     -2.24978567      1.18524043      0.03140120
    N     -2.38702576     -1.07550946     -0.03773223
    H     -1.37413971     -1.18524043     -0.03140120
    H     -2.97440639     -1.88618679     -0.06629227
    C     -4.43329625      0.23105964     -0.00914343
    H     -4.75515477      0.72823300      0.90259774
    H     -4.91397645     -0.74089083     -0.07803337
    H     -4.74391712      0.84883291     -0.84764462
    N      2.24827137     -0.02684630     -1.27674204
    H      2.65099893     -0.91855421     -1.52973778
    C      2.96279535      1.11241989     -1.68427373
    O      4.00555425      0.99569674     -2.30555855
    C      2.32401429      2.35105568     -1.28646861
    H      2.79185489      3.28355563     -1.55065072
    C      1.16305147      2.31133369     -0.59751418
    H      0.64798420      3.20555423     -0.27840305
    N      0.54983736      1.14040895     -0.25056214
    H     -0.33888746      1.14829441      0.27559847
    C      1.06662488     -0.08502353     -0.57666508
    O      0.53045806     -1.14829441     -0.27559847
$end
   
$rem
mem_static = 200
mem_total  = 7500
exchange = b3lyp
basis = G3Large
max_scf_cycles = 50
scf_convergence = 7
symmetry = false
xc_grid = 000075000302
$end
