$molecule
0    1
    C     -3.40256416      1.16349320      0.68356587
    H     -3.12890869      2.06501321      1.21468843
    C     -3.15844104      1.06144469     -0.68418760
    H     -2.69040136      1.88053799     -1.21264496
    C     -3.50633113     -0.10174791     -1.36799543
    H     -3.31430617     -0.18176247     -2.42945217
    C     -4.09600260     -1.16339311     -0.68437984
    H     -4.36596668     -2.06610972     -1.21580333
    C     -4.33792388     -1.06200411      0.68466474
    H     -4.79669976     -1.88534556      1.21552612
    C     -3.99316606      0.10264177      1.36812391
    H     -4.18256352      0.18248867      2.43016870
    C      1.06225233      1.16319960      0.41901777
    H      1.56206202      2.06577731      0.74414453
    C      0.58748415      1.06171850     -0.88769352
    H      0.71989365      1.88485284     -1.57698045
    C     -0.05326385     -0.10273910     -1.30706306
    H     -0.42011003     -0.18262672     -2.32157882
    C     -0.22314954     -1.16330490     -0.41869478
    H     -0.72608664     -2.06461832     -0.74173474
    C      0.24906333     -1.06115562      0.88794351
    H      0.10736161     -1.87998103      1.57979193
    C      0.89267938      0.10183173      1.30606670
    H      1.25687208      0.18195555      2.32140256
$end
   
$rem
mem_static = 200
mem_total  = 7500
exchange = b3lyp
basis = G3Large
max_scf_cycles = 50
scf_convergence = 7
symmetry = false
xc_grid = 000075000302
$end
