$molecule
0    1
    N      0.38476820      0.93966783      0.95722570
    C     -0.09251789     -0.26305683      1.30407392
    H     -0.16024316     -0.45732981      2.36770313
    C     -0.49333577     -1.23395748      0.38838085
    H     -0.88331359     -2.17958755      0.73672633
    C     -0.38994480     -0.95213448     -0.96901696
    H     -0.69213775     -1.67930326     -1.70985103
    C      0.10741396      0.29090760     -1.34806726
    H      0.20945170      0.55977468     -2.39014286
    C      0.47518996      1.19549430     -0.35587503
    H      0.86468908      2.17061855     -0.62265324
    N     -4.44815574      0.99346872      0.68412761
    C     -4.47901219      1.11267902     -0.65101849
    H     -5.25031422      0.54659876     -1.15936979
    C     -3.59693490      1.90724791     -1.37797871
    H     -3.67907064      1.96143495     -2.45456891
    C     -2.61800120      2.61989749     -0.69233591
    H     -1.91052996      3.24284693     -1.22188620
    C     -2.56931584      2.50637188      0.69233591
    H     -1.82239380      3.02964414      1.27198911
    C     -3.50186326      1.68926559      1.32830226
    H     -3.48779009      1.58448208      2.40646446
$end
   
$rem
mem_static = 200
mem_total  = 7500
exchange = b3lyp
basis = G3Large
max_scf_cycles = 50
scf_convergence = 7
symmetry = false
xc_grid = 000075000302
$end
