$molecule
0    1
    N     -0.08326113      0.23512302     -0.91450899
    H     -0.31064008      0.51332645     -1.86177709
    C     -0.04508768     -1.14224124     -0.66270325
    O     -0.23159647     -1.94485242     -1.56473787
    N      0.19274653      0.83938717      1.29214319
    H      0.28772083     -2.50289334      1.01191426
    C      0.29464387     -0.47862572      1.64219832
    H      0.44441245     -0.66951374      2.69425609
    C      0.20726920     -1.46768142      0.72877299
    H      0.14091805      1.55709449      1.99705275
    C     -0.04355028      1.26986533     -0.00000000
    O     -0.20992845      2.43887142     -0.29026084
    N     -3.17095466      0.94351253      1.57365318
    H     -2.97130391      1.93077344      1.46470053
    C     -2.58047157      0.30686617      2.67274680
    O     -1.90505222      0.94049584      3.46958984
    N     -4.01616189     -0.99675650      0.66172663
    H     -2.45739897     -1.68789434      3.55153182
    C     -3.52339538     -1.71047622      1.71901795
    H     -3.71269588     -2.77304694      1.69067703
    C     -2.84289591     -1.11946364      2.72292828
    H     -4.41621307     -1.46593588     -0.13483929
    C     -3.83221323      0.36457855      0.50774144
    O     -4.20635434      0.97824141     -0.47304631
$end
   
$rem
mem_static = 200
mem_total  = 7500
exchange = b3lyp
basis = G3Large
max_scf_cycles = 50
scf_convergence = 7
symmetry = false
xc_grid = 000075000302
$end
