$molecule
0    1
    C     -0.11587643      0.05192952     -1.38749749
    H     -0.20497929      0.09158447     -2.46489807
    C      0.43403345      1.12847653     -0.69417173
    H      0.77393720      2.00269571     -1.23307303
    C      0.55211829      1.07569563      0.69417173
    H      0.98413651      1.90871051      1.23236400
    C      0.11839162     -0.05269075      1.38724045
    H      0.21027354     -0.09438381      2.46425282
    C     -0.43663373     -1.12766463      0.69386470
    H     -0.78494012     -1.99840697      1.23208468
    C     -0.55156311     -1.07585566     -0.69361039
    H     -0.98402939     -1.90889689     -1.23069791
    N     -3.61934622     -2.86825780      0.90356288
    C     -3.77655302     -3.10621542     -0.40616137
    H     -3.68217102     -4.14051655     -0.71440792
    C     -4.04924487     -2.11589670     -1.34605225
    H     -4.16606997     -2.37668115     -2.38860644
    C     -4.16425977     -0.79847116     -0.91452586
    H     -4.36892535     -0.00043224     -1.61478436
    C     -4.00216466     -0.53283775      0.44021827
    H     -4.07230434      0.47387205      0.82642319
    C     -3.73371037     -1.59391557      1.30120993
    H     -3.60112690     -1.41450714      2.36119114
$end
   
$rem
mem_static = 200
mem_total  = 7500
exchange = b3lyp
basis = G3Large
max_scf_cycles = 50
scf_convergence = 7
symmetry = false
xc_grid = 000075000302
$end
