$molecule
0    1
    C     -3.52866493      0.68048606     -1.20847218
    H     -3.63190392      1.20984160     -2.14524296
    C     -3.20687948     -0.67530525     -1.20796270
    H     -3.06796834     -1.19661155     -2.14529585
    C     -3.05734777     -1.35574007     -0.00000030
    H     -2.81159414     -2.40946981     -0.00140803
    C     -3.22815710     -0.68058066      1.20790686
    H     -3.11021927     -1.20582196      2.14606652
    C     -3.54810076      0.67606745      1.20855256
    H     -3.66861955      1.20123132      2.14575888
    C     -3.70024964      1.35456769      0.00000000
    H     -3.95160876      2.40684544     -0.00016729
    N      0.66102238      0.89489490     -0.13440392
    H      0.31939098      1.83432948     -0.28405506
    C      1.46797449      0.36644005     -1.14948557
    O      1.76985928      1.04236767     -2.11860882
    C      1.87556324     -1.00627939     -0.90491348
    H      2.50970411     -1.49406118     -1.62494929
    C      1.46123641     -1.63848157      0.21197586
    H      1.73778559     -2.65741511      0.43944570
    N      0.65402147     -1.02574856      1.13165893
    H      0.35229784     -1.50484861      1.96326641
    C      0.20579706      0.27970390      1.01055454
    O     -0.50601283      0.81332470      1.83893617
$end
   
$rem
mem_static = 200
mem_total  = 7500
exchange = b3lyp
basis = G3Large
max_scf_cycles = 50
scf_convergence = 7
symmetry = false
xc_grid = 000075000302
$end
