$molecule
0    1
    C      0.15078632      0.68048606      1.20847218
    H      0.25402531      1.20984160      2.14524296
    C     -0.17099913     -0.67530525      1.20796270
    H     -0.30991027     -1.19661155      2.14529585
    C     -0.32053084     -1.35574007      0.00000030
    H     -0.56628447     -2.40946981      0.00140803
    C     -0.14972151     -0.68058066     -1.20790686
    H     -0.26765934     -1.20582196     -2.14606652
    C      0.17022215      0.67606745     -1.20855256
    H      0.29074094      1.20123132     -2.14575888
    C      0.32237103      1.35456769     -0.00000000
    H      0.57373014      2.40684544      0.00016729
    N     -3.29137741      0.89489490      1.52676782
    H     -2.99096001      1.83432948      1.30573192
    C     -2.81576695      0.36644005      2.73314966
    O     -2.12742400      1.04236767      3.47915119
    C     -3.23136698     -1.00627939      2.96384583
    H     -2.92486811     -1.49406118      3.87304585
    C     -3.99145810     -1.63848157      2.04658360
    H     -4.32672736     -2.65741511      2.17234730
    N     -4.38431955     -1.02574856      0.88767343
    H     -4.95365093     -1.50484861      0.21056936
    C     -4.05532785      0.27970390      0.56005189
    O     -4.41682245      0.81332470     -0.47058437
$end
   
$rem
mem_static = 200
mem_total  = 7500
exchange = b3lyp
basis = G3Large
max_scf_cycles = 50
scf_convergence = 7
symmetry = false
xc_grid = 000075000302
$end
