$molecule
0    1
    C      0.15078632      0.68048606      1.20847218
    H      0.25402531      1.20984160      2.14524296
    C     -0.17099913     -0.67530525      1.20796270
    H     -0.30991027     -1.19661155      2.14529585
    C     -0.32053084     -1.35574007      0.00000030
    H     -0.56628447     -2.40946981      0.00140803
    C     -0.14972151     -0.68058066     -1.20790686
    H     -0.26765934     -1.20582196     -2.14606652
    C      0.17022215      0.67606745     -1.20855256
    H      0.29074094      1.20123132     -2.14575888
    C      0.32237103      1.35456769     -0.00000000
    H      0.57373014      2.40684544      0.00016729
    N     -3.25379679      0.89489490     -1.55453539
    H     -2.91216538      1.83432948     -1.40488424
    C     -4.06074889      0.36644005     -0.53945373
    O     -4.36263368      1.04236767      0.42966952
    C     -4.46833764     -1.00627939     -0.78402583
    H     -5.10247851     -1.49406118     -0.06399001
    C     -4.05401081     -1.63848157     -1.90091516
    H     -4.33055999     -2.65741511     -2.12838500
    N     -3.24679588     -1.02574856     -2.82059824
    H     -2.94507224     -1.50484861     -3.65220572
    C     -2.79857146      0.27970390     -2.69949384
    O     -2.08676157      0.81332470     -3.52787548
$end
   
$rem
mem_static = 200
mem_total  = 7500
exchange = b3lyp
basis = G3Large
max_scf_cycles = 50
scf_convergence = 7
symmetry = false
xc_grid = 000075000302
$end
