$molecule
0    1
    C      0.15078632      0.68048606      1.20847218
    H      0.25402531      1.20984160      2.14524296
    C     -0.17099913     -0.67530525      1.20796270
    H     -0.30991027     -1.19661155      2.14529585
    C     -0.32053084     -1.35574007      0.00000030
    H     -0.56628447     -2.40946981      0.00140803
    C     -0.14972151     -0.68058066     -1.20790686
    H     -0.26765934     -1.20582196     -2.14606652
    C      0.17022215      0.67606745     -1.20855256
    H      0.29074094      1.20123132     -2.14575888
    C      0.32237103      1.35456769     -0.00000000
    H      0.57373014      2.40684544      0.00016729
    N     -3.69725286     -0.76564988     -0.01603161
    H     -3.84594575      0.23326785     -0.05724562
    C     -3.59869626     -1.31895531      1.26653094
    O     -3.74343100     -0.62202395      2.25675869
    C     -3.32393093     -2.74539934      1.25851967
    H     -3.24386104     -3.26241286      2.19915941
    C     -3.18071199     -3.39271604      0.08410171
    H     -2.97715444     -4.45175515      0.02538164
    N     -3.27990175     -2.74246015     -1.11597466
    H     -3.17415560     -3.23462466     -1.98702968
    C     -3.54401993     -1.38754219     -1.23520738
    O     -3.63567268     -0.82428570     -2.30851187
$end
   
$rem
mem_static = 200
mem_total  = 7500
exchange = b3lyp
basis = G3Large
max_scf_cycles = 50
scf_convergence = 7
symmetry = false
xc_grid = 000075000302
$end
