$molecule
0    1
    N     -2.96296007     -1.34610766      0.00026841
    C     -3.25176773     -0.69634675      1.13751040
    H     -3.17378745     -1.27413960      2.04975780
    C     -3.62139374      0.64544970      1.18917528
    H     -3.83270501      1.10946700      2.14194627
    C     -3.70148792      1.36320864     -0.00000000
    H     -3.98102947      2.40778569     -0.00040223
    C     -3.40945181      0.70487490     -1.19018146
    H     -3.44535297      1.21930706     -2.13942027
    C     -3.04916539     -0.63916464     -1.13713798
    H     -2.81721908     -1.17699328     -2.04805940
    N      0.77670985      0.85032144      0.32323090
    H      0.97904954      1.77077955      0.68823280
    C      0.88089529      0.70360483     -1.06606495
    O      1.22253569      1.64454835     -1.76398292
    C      0.54094819     -0.62895635     -1.52881754
    H      0.60055888     -0.84289755     -2.58195314
    C      0.14468015     -1.56427229     -0.64103522
    H     -0.13717622     -2.56340286     -0.93770391
    N      0.07283486     -1.30586813      0.69945631
    H     -0.28477074     -1.99318845      1.34143737
    C      0.36258112     -0.07477665      1.25775033
    O      0.26292952      0.15725609      2.44753846
$end
   
$rem
mem_static = 200
mem_total  = 7500
exchange = b3lyp
basis = G3Large
max_scf_cycles = 50
scf_convergence = 7
symmetry = false
xc_grid = 000075000302
$end
