$molecule
0    1
    C      0.00075617      0.69653429     -1.20686639
    H      0.00262252      1.23747502     -2.14352141
    C     -0.00160968      1.39322192     -0.00003961
    H     -0.00061755      2.47482319      0.00000000
    C      0.00047085      0.69649081      1.20685572
    H      0.00237651      1.23746201      2.14350205
    C      0.00076010     -0.69653164      1.20686690
    H      0.00262974     -1.23747621      2.14352557
    C     -0.00159672     -1.39322212      0.00003887
    H     -0.00059394     -2.47482163      0.00000161
    C      0.00047993     -0.69649350     -1.20685639
    H      0.00239289     -1.23745961     -2.14349708
    C     -3.75675970      0.66502748     -1.68553711
    H     -4.22950776      1.17382684     -0.85777970
    H     -3.30807324      1.27836776     -2.45368332
    C     -3.71903181     -0.66502745     -1.75089630
    H     -4.15992621     -1.27836582     -0.97825098
    H     -3.23855331     -1.17382912     -2.57419030
$end
   
$rem
mem_static = 200
mem_total  = 7500
exchange = b3lyp
basis = G3Large
max_scf_cycles = 50
scf_convergence = 7
symmetry = false
xc_grid = 000075000302
$end
