$molecule
0    1
    C     -3.43654554      0.69653429      1.20686639
    H     -3.43841189      1.23747502      2.14352141
    C     -3.43417969      1.39322192      0.00003961
    H     -3.43517182      2.47482319     -0.00000000
    C     -3.43626022      0.69649081     -1.20685572
    H     -3.43816588      1.23746201     -2.14350205
    C     -3.43654947     -0.69653164     -1.20686690
    H     -3.43841911     -1.23747621     -2.14352557
    C     -3.43419265     -1.39322212     -0.00003887
    H     -3.43519543     -2.47482163     -0.00000161
    C     -3.43626930     -0.69649350      1.20685639
    H     -3.43818227     -1.23745961      2.14349708
    C      0.70466205      0.57561026     -0.03773332
    H      0.95519329      1.01847687     -0.99096629
    H      1.00743441      1.10902890      0.85184404
    C      0.03964002     -0.57625424      0.03773335
    H     -0.27092360     -1.10517240     -0.85184433
    H     -0.21862292     -1.01465962      0.99096611
$end
   
$rem
mem_static = 200
mem_total  = 7500
exchange = b3lyp
basis = G3Large
max_scf_cycles = 50
scf_convergence = 7
symmetry = false
xc_grid = 000075000302
$end
