$molecule
0    1
    C      0.00075617      0.69653429     -1.20686639
    H      0.00262252      1.23747502     -2.14352141
    C     -0.00160968      1.39322192     -0.00003961
    H     -0.00061755      2.47482319      0.00000000
    C      0.00047085      0.69649081      1.20685572
    H      0.00237651      1.23746201      2.14350205
    C      0.00076010     -0.69653164      1.20686690
    H      0.00262974     -1.23747621      2.14352557
    C     -0.00159672     -1.39322212      0.00003887
    H     -0.00059394     -2.47482163      0.00000161
    C      0.00047993     -0.69649350     -1.20685639
    H      0.00239289     -1.23745961     -2.14349708
    C     -3.71902140      0.66502748      1.75089313
    H     -3.23853649      1.17382684      2.57418366
    H     -4.15991230      1.27836776      0.97824616
    C     -3.75676018     -0.66502745      1.68554022
    H     -3.30807690     -1.27836582      2.45368863
    H     -4.22951445     -1.17382912      0.85778664
$end
   
$rem
mem_static = 200
mem_total  = 7500
exchange = b3lyp
basis = G3Large
max_scf_cycles = 50
scf_convergence = 7
symmetry = false
xc_grid = 000075000302
$end
