$molecule
0    1
    N      0.05814321      0.94121396      0.00000000
    H      0.07679462      1.95154511     -0.02185672
    C      0.10066505      0.35201095      1.27142320
    O      0.16062592      1.04564034      2.27259365
    C      0.06557159     -1.09889367      1.23436781
    H      0.11340588     -1.64180999      2.16232678
    C     -0.03326016     -1.73473003      0.04954910
    H     -0.07087993     -2.81096561     -0.02981735
    N     -0.09855314     -1.05320961     -1.13515832
    H     -0.20204032     -1.53792555     -2.01076727
    C     -0.07694072      0.32714799     -1.22682079
    O     -0.16210352      0.92421795     -2.28242265
    C     -3.40359426      0.03548903     -2.26313164
    H     -2.78960588      0.88049592     -2.54118236
    H     -3.52308920     -0.75018719     -2.99604070
    C     -3.99769936     -0.03556274     -1.07141797
    H     -3.89037501      0.75110986     -0.33786119
    H     -4.61511727     -0.88054032     -0.80124971
$end
   
$rem
mem_static = 200
mem_total  = 7500
exchange = b3lyp
basis = G3Large
max_scf_cycles = 50
scf_convergence = 7
symmetry = false
xc_grid = 000075000302
$end
