$molecule
0    1
    N     -3.34219642      0.29629730     -0.89552659
    H     -3.30483094      0.62285489     -1.85131715
    C     -3.47933375     -1.08835444     -0.72548145
    O     -3.59697162     -1.82314913     -1.69106922
    C     -3.46695339     -1.50132634      0.66720678
    H     -3.59218628     -2.54492649      0.89860454
    C     -3.29798538     -0.57958911      1.63641769
    H     -3.27537278     -0.83638319      2.68498824
    N     -3.13996596      0.74911566      1.35053172
    H     -2.96317004      1.42045836      2.07876447
    C     -3.10613239      1.25534799      0.06365567
    O     -2.89641386      2.42900525     -0.17985030
    C      0.43836818      0.53635594      0.00658222
    H      0.91391965      1.48704695      0.00000000
    C     -0.12612243     -0.53694348     -0.00452960
    H     -0.61404330     -1.48004574     -0.02445919
$end
   
$rem
mem_static = 200
mem_total  = 7500
exchange = b3lyp
basis = G3Large
max_scf_cycles = 50
scf_convergence = 7
symmetry = false
xc_grid = 000075000302
$end
