$molecule
0    1
    N     -0.09580856     -1.39166944     -0.00000363
    C     -0.05005870     -0.69016765     -1.14009793
    H     -0.08903521     -1.26932654     -2.05474786
    C      0.04785597      0.69807373     -1.19314698
    H      0.08440795      1.20200795     -2.14865783
    C      0.10168958      1.40966247      0.00001127
    H      0.17975043      2.48808624      0.00000000
    C      0.04789132      0.69805852      1.19314250
    H      0.08443520      1.20198312      2.14865169
    C     -0.04997420     -0.69017667      1.14009778
    H     -0.08883814     -1.26934207      2.05472532
    C     -3.37820319      0.00033813      2.27165289
    H     -2.96772331     -0.91145887      2.68084382
    H     -3.22592194      0.91133369      2.83299884
    C     -4.04461361     -0.00016490      1.11755044
    H     -4.19346803     -0.91236663      0.55806191
    H     -4.45501778      0.91042758      0.70446048
$end
   
$rem
mem_static = 200
mem_total  = 7500
exchange = b3lyp
basis = G3Large
max_scf_cycles = 50
scf_convergence = 7
symmetry = false
xc_grid = 000075000302
$end
