$molecule
0    1
    C     -3.82708720      0.33480611     -2.53316648
    H     -4.66258726      1.03418388     -2.56319524
    H     -2.90645155      0.91718640     -2.56658994
    H     -3.86856395     -0.27493536     -3.43453883
    C     -3.88324163     -0.51728822     -1.27209867
    H     -3.05768644     -1.23316205     -1.27153644
    H     -4.80166415     -1.10894716     -1.26709647
    C     -3.82097765      0.31715915     -0.00000000
    H     -2.89973211      0.90732904      0.00022517
    H     -4.64550689      1.03639823      0.00006736
    C     -3.88353786     -0.51807152      1.27168085
    H     -3.05830995     -1.23427889      1.27046137
    H     -4.80221813     -1.10928069      1.26617265
    C     -3.82697102      0.33274982      2.53354552
    H     -4.66194567      1.03272120      2.56435060
    H     -3.86909724     -0.27809118      3.43419611
    H     -2.90588506      0.91436273      2.56794589
    C      0.50181978     -0.30008577      2.53343267
    H     -0.00550819     -1.26407555      2.56777141
    H      1.57483297     -0.48929273      2.56364616
    H      0.23357032      0.24984519      3.43436852
    C      0.12516276      0.46560594      1.27196217
    H      0.62523431      1.43691214      1.26676836
    H     -0.94760375      0.67336692      1.27112817
    C      0.48815415     -0.28837837     -0.00016168
    H      1.56182343     -0.49901633     -0.00061435
    H     -0.01463102     -1.26008994     -0.00033426
    C      0.12431589      0.46640137     -1.27157341
    H      0.62398933      1.43791899     -1.26594112
    H     -0.94853816      0.67373542     -1.27017070
    C      0.50081574     -0.29835524     -2.53364820
    H     -0.00578265     -1.26274045     -2.56808754
    H      0.23168156      0.25172046     -3.43419493
    H      1.57396973     -0.48674747     -2.56447729
$end
   
$rem
mem_static = 200
mem_total  = 7500
exchange = b3lyp
basis = G3Large
max_scf_cycles = 50
scf_convergence = 7
symmetry = false
xc_grid = 000075000302
$end
