$molecule
0    1
    C     -0.02070716      0.33480611      2.53316648
    H      0.81479290      1.03418388      2.56319524
    H     -0.94134281      0.91718640      2.56658994
    H      0.02076959     -0.27493536      3.43453883
    C      0.03544726     -0.51728822      1.27209867
    H     -0.79010792     -1.23316205      1.27153644
    H      0.95386979     -1.10894716      1.26709647
    C     -0.02681671      0.31715915     -0.00000000
    H     -0.94806225      0.90732904     -0.00022517
    H      0.79771252      1.03639823     -0.00006736
    C      0.03574350     -0.51807152     -1.27168085
    H     -0.78948442     -1.23427889     -1.27046137
    H      0.95442376     -1.10928069     -1.26617265
    C     -0.02082334      0.33274982     -2.53354552
    H      0.81415131      1.03272120     -2.56435060
    H      0.02130287     -0.27809118     -3.43419611
    H     -0.94190930      0.91436273     -2.56794589
    C     -5.88199219     -0.33448504     -0.28053309
    H     -5.10124577     -0.91566070     -0.77094821
    H     -6.61992982     -1.03484968      0.11062786
    H     -6.36940011      0.27589387     -1.03943911
    C     -5.30031841      0.51695194      0.84025806
    H     -6.09336310      1.10809200      1.30411992
    H     -4.58528968      1.23326147      0.42839904
    C     -4.61001526     -0.31751333      1.91063344
    H     -5.32383197     -1.03676580      2.32327841
    H     -3.81207663     -0.90764765      1.45014264
    C     -4.02825990      0.51806424      3.04285665
    H     -4.82651060      1.10958646      3.49722329
    H     -3.31409900      1.23404781      2.62891594
    C     -3.34844807     -0.33248435      4.10768554
    H     -2.53368856     -0.91436724      3.67705104
    H     -2.93451384      0.27846227      4.90856229
    H     -4.05632279     -1.03221380      4.55197556
$end
   
$rem
mem_static = 200
mem_total  = 7500
exchange = b3lyp
basis = G3Large
max_scf_cycles = 50
scf_convergence = 7
symmetry = false
xc_grid = 000075000302
$end
