$molecule
0    1
    C     -4.59613301      0.33317179     -2.53279144
    H     -5.54327551      0.87146019     -2.56636702
    H     -3.79546176      1.07231283     -2.56185371
    H     -4.52351617     -0.27342503     -3.43414516
    C     -4.50308327     -0.51641989     -1.27222649
    H     -3.56187238     -1.07148432     -1.26995813
    H     -5.29934000     -1.26427615     -1.27093556
    C     -4.59761883      0.31503147     -0.00000000
    H     -3.80386963      1.06860544      0.00010859
    H     -5.54153070      0.86825773     -0.00013796
    C     -4.50342682     -0.51633499      1.27233304
    H     -3.56239110     -1.07170803      1.27021694
    H     -5.29991144     -1.26395633      1.27110571
    C     -4.59613757      0.33355815      2.53269396
    H     -5.54296382      0.87242927      2.56609306
    H     -4.52387795     -0.27280919      3.43423360
    H     -3.79502756      1.07223622      2.56153158
    C      0.42306585      0.00013603      0.00026631
    C      1.73529123      0.18339200      0.75770140
    H      2.56374710     -0.27474514      0.21568685
    H      1.96237358      1.24211251      0.89045679
    H      1.68135304     -0.27723383      1.74516416
    C      0.53177791      0.65600362     -1.37387994
    H     -0.39562081      0.53603413     -1.93530032
    H      0.73468414      1.72392128     -1.27980405
    H      1.33879864      0.20838131     -1.95597091
    C     -0.71353106      0.65038327      0.78485136
    H     -1.66338229      0.53141164      0.26199053
    H     -0.53228650      1.71795143      0.91863653
    H     -0.81319115      0.19783203      1.77257789
    C      0.13679417     -1.48976746     -0.16874863
    H      0.05391875     -1.98229457      0.80124424
    H     -0.79845889     -1.64695952     -0.70808571
    H      0.93559249     -1.97816848     -0.72886594
$end
   
$rem
mem_static = 200
mem_total  = 7500
exchange = b3lyp
basis = G3Large
max_scf_cycles = 50
scf_convergence = 7
symmetry = false
xc_grid = 000075000302
$end
