$molecule
0    1
    C     -4.59613301      0.33317179     -2.53279144
    H     -5.54327551      0.87146019     -2.56636702
    H     -3.79546176      1.07231283     -2.56185371
    H     -4.52351617     -0.27342503     -3.43414516
    C     -4.50308327     -0.51641989     -1.27222649
    H     -3.56187238     -1.07148432     -1.26995813
    H     -5.29934000     -1.26427615     -1.27093556
    C     -4.59761883      0.31503147     -0.00000000
    H     -3.80386963      1.06860544      0.00010859
    H     -5.54153070      0.86825773     -0.00013796
    C     -4.50342682     -0.51633499      1.27233304
    H     -3.56239110     -1.07170803      1.27021694
    H     -5.29991144     -1.26395633      1.27110571
    C     -4.59613757      0.33355815      2.53269396
    H     -5.54296382      0.87242927      2.56609306
    H     -4.52387795     -0.27280919      3.43423360
    H     -3.79502756      1.07223622      2.56153158
    C      0.35593172      0.00037961      0.00000519
    C      1.57645179      0.91665297     -0.00014947
    H      2.19216307      0.74312285     -0.88377577
    H      1.27488807      1.96505022      0.00127890
    H      2.19389498      0.74124906      0.88198746
    C     -0.48549081      0.27191476     -1.24439640
    H     -1.36415726     -0.37391239     -1.26690135
    H     -0.82653390      1.30813852     -1.26437740
    H      0.09153311      0.08818995     -2.15201233
    C     -0.48190429      0.26749561      1.24777423
    H     -1.36121228     -0.37754970      1.26988909
    H     -0.82182427      1.30396424      1.27301331
    H      0.09732440      0.07935229      2.15300054
    C      0.81299409     -1.45612766     -0.00323020
    H      1.41712031     -1.67605654      0.87824597
    H     -0.04338947     -2.13207071     -0.00268328
    H      1.41375543     -1.67323486     -0.88770518
$end
   
$rem
mem_static = 200
mem_total  = 7500
exchange = b3lyp
basis = G3Large
max_scf_cycles = 50
scf_convergence = 7
symmetry = false
xc_grid = 000075000302
$end
