$molecule
0    1
    C      0.03571203      0.33317179      2.53279144
    H      0.98285453      0.87146019      2.56636702
    H     -0.76495923      1.07231283      2.56185371
    H     -0.03690482     -0.27342503      3.43414516
    C     -0.05733771     -0.51641989      1.27222649
    H     -0.99854860     -1.07148432      1.26995813
    H      0.73891901     -1.26427615      1.27093556
    C      0.03719785      0.31503147      0.00000000
    H     -0.75655135      1.06860544     -0.00010859
    H      0.98110972      0.86825773      0.00013796
    C     -0.05699416     -0.51633499     -1.27233304
    H     -0.99802988     -1.07170803     -1.27021694
    H      0.73949046     -1.26395633     -1.27110571
    C      0.03571658      0.33355815     -2.53269396
    H      0.98254284      0.87242927     -2.56609306
    H     -0.03654303     -0.27280919     -3.43423360
    H     -0.76539342      1.07223622     -2.56153158
    C     -4.57213950     -2.28035450     -0.00000519
    C     -5.97591554     -2.87921921      0.00014947
    H     -6.13348968     -3.49920588      0.88377577
    H     -6.73307232     -2.09385874     -0.00127890
    H     -6.13273289     -3.50164264     -0.88198746
    C     -4.38658456     -1.41589364      1.24439640
    H     -3.38794862     -0.97785975      1.26690135
    H     -5.11345912     -0.60242977      1.26437740
    H     -4.51598617     -2.00747342      2.15201233
    C     -4.38455073     -1.42120923     -1.24777423
    H     -3.38627111     -0.98222883     -1.26988909
    H     -5.11219891     -0.60859558     -1.27301331
    H     -4.51122818     -2.01690765     -2.15300054
    C     -3.53929838     -3.40443576      0.00323020
    H     -3.65089750     -4.03758886     -0.87824597
    H     -2.52572275     -3.00075736      0.00268328
    H     -3.65165870     -4.03326395      0.88770518
$end
   
$rem
mem_static = 200
mem_total  = 7500
exchange = b3lyp
basis = G3Large
max_scf_cycles = 50
scf_convergence = 7
symmetry = false
xc_grid = 000075000302
$end
