$molecule
0    1
    C     -4.95136283     -0.37923179     -1.18716033
    H     -6.03896599     -0.38823650     -1.28081663
    H     -4.53583099     -0.70230647     -2.14066723
    C     -4.47003371      1.02087418     -0.77242971
    H     -5.10216650      1.80659477     -1.18170429
    H     -3.46337463      1.19524576     -1.15156723
    C     -4.46491449      1.01831468      0.77747509
    H     -5.12577555      1.77801029      1.19044444
    H     -3.46477988      1.23288953      1.15262285
    C     -4.89775812     -0.39943494      1.19426516
    H     -5.97762468     -0.42931535      1.34974876
    H     -4.42428480     -0.72912136      2.11799959
    C     -4.54418262     -1.26729972     -0.01277628
    H     -5.04527188     -2.23430943     -0.00882383
    H     -3.46787041     -1.44868896     -0.03977598
    C      0.56001302     -0.00082692     -0.00000533
    C      1.99015025      0.53226777      0.00979063
    H      2.18026273      1.14953507     -0.86932988
    H      2.17134155      1.14122918      0.89655471
    H      2.70987127     -0.28751801      0.00955145
    C     -0.41929784      1.17026971      0.00000000
    H     -1.45098794      0.81564723     -0.00623275
    H     -0.28153802      1.79168476      0.88608774
    H     -0.27331368      1.79874179     -0.87977875
    C      0.32998786     -0.85655629      1.24340027
    H     -0.68906177     -1.24480144      1.26849124
    H      0.48974657     -0.27166113      2.15049656
    H      1.01520887     -1.70545953      1.26359427
    C      0.34338132     -0.84568038     -1.25318754
    H      1.02769960     -1.69531084     -1.27263591
    H     -0.67575235     -1.23237674     -1.29330613
    H      0.51416196     -0.25344103     -2.15346906
$end
   
$rem
mem_static = 200
mem_total  = 7500
exchange = b3lyp
basis = G3Large
max_scf_cycles = 50
scf_convergence = 7
symmetry = false
xc_grid = 000075000302
$end
