$molecule
0    1
    C     -4.07694610      1.28579828      0.00000000
    H     -4.93945513      1.94562917      0.08441598
    H     -3.19738013      1.92225070     -0.07989448
    C     -4.00447656      0.33915948      1.22612961
    H     -4.86156392      0.50539454      1.87799770
    H     -3.11134878      0.50528862      1.82613393
    C     -4.05870120     -1.08437906      0.65047495
    H     -4.50908697     -1.80028525      1.33624028
    H     -3.05056710     -1.43577636      0.42124062
    C     -4.83454274     -0.91372978     -0.65406377
    H     -5.89416142     -0.75979591     -0.43637061
    H     -4.74960264     -1.76806155     -1.32415239
    C     -4.22884748      0.36731027     -1.22610685
    H     -4.82853717      0.81593487     -2.01632047
    H     -3.24798424      0.13902078     -1.64679706
    C     -0.09684196     -0.44394740     -1.10357816
    H     -1.17930630     -0.30234785     -1.08007410
    H      0.15351157     -0.91213079     -2.05426393
    C      0.61710594      0.90054759     -0.89538025
    H      0.06510765      1.73029709     -1.33369680
    H      1.59364728      0.87734433     -1.37810640
    C      0.78545573      1.04807597      0.63908728
    H      0.27956961      1.93160536      1.02450353
    H      1.83953434      1.14946722      0.89405447
    C      0.21396794     -0.24592717      1.24660750
    H     -0.83888564     -0.10798531      1.49899994
    H      0.73215398     -0.54898862      2.15486809
    C      0.32399587     -1.26527581      0.11344631
    H     -0.28771700     -2.15262182      0.27031886
    H      1.36219092     -1.58686558      0.00121957
$end
   
$rem
mem_static = 200
mem_total  = 7500
exchange = b3lyp
basis = G3Large
max_scf_cycles = 50
scf_convergence = 7
symmetry = false
xc_grid = 000075000302
$end
