$molecule
0    1
    C     -4.07694610      1.28579828      0.00000000
    H     -4.93945513      1.94562917      0.08441598
    H     -3.19738013      1.92225070     -0.07989448
    C     -4.00447656      0.33915948      1.22612961
    H     -4.86156392      0.50539454      1.87799770
    H     -3.11134878      0.50528862      1.82613393
    C     -4.05870120     -1.08437906      0.65047495
    H     -4.50908697     -1.80028525      1.33624028
    H     -3.05056710     -1.43577636      0.42124062
    C     -4.83454274     -0.91372978     -0.65406377
    H     -5.89416142     -0.75979591     -0.43637061
    H     -4.74960264     -1.76806155     -1.32415239
    C     -4.22884748      0.36731027     -1.22610685
    H     -4.82853717      0.81593487     -2.01632047
    H     -3.24798424      0.13902078     -1.64679706
    C      0.99467931     -0.61749216     -1.04654323
    H      0.10976462     -1.03609552     -1.53030880
    H      1.86051669     -0.89777411     -1.64440915
    C      0.84385787      0.90384861     -0.89321379
    H      0.28972535      1.34643361     -1.71926670
    H      1.82767426      1.37202465     -0.88261128
    C      0.13900477      1.11578682      0.47168958
    H     -0.81569738      1.62800266      0.36553238
    H      0.75817644      1.73063352      1.12357926
    C     -0.03305138     -0.29059667      1.07385684
    H     -1.00861836     -0.69756230      0.80205066
    H      0.03268732     -0.29396256      2.16058008
    C      1.05744108     -1.11836452      0.39499112
    H      0.90445224     -2.19268514      0.48780379
    H      2.03145319     -0.87777191      0.82774899
$end
   
$rem
mem_static = 200
mem_total  = 7500
exchange = b3lyp
basis = G3Large
max_scf_cycles = 50
scf_convergence = 7
symmetry = false
xc_grid = 000075000302
$end
