$molecule
0    1
    C     -0.43814049     -1.32303806     -0.00017976
    H     -0.77620098     -2.35053745     -0.00036914
    C     -0.32793570     -0.62556641     -1.20182239
    H     -0.58120459     -1.11159820     -2.13440044
    C      0.10969064      0.69774771     -1.20166175
    H      0.19442327      1.23942759     -2.13393124
    C      0.43795216      1.32314805      0.00000161
    H      0.77651844      2.35020793     -0.00000000
    C      0.32842623      0.62540360      1.20186364
    H      0.58257479      1.11089111      2.13420885
    C     -0.11009465     -0.69760281      1.20183382
    H     -0.19489787     -1.23948803      2.13407283
    C     -3.63341169      1.16412443     -1.63319949
    H     -2.82225327      1.00180197     -0.92087054
    H     -3.76873960      2.23860908     -1.75190306
    C     -3.32041465      0.45248640     -2.95216206
    H     -2.27743058      0.55732308     -3.24663636
    H     -3.93025605      0.88130789     -3.74866402
    C     -3.72427746     -1.02198717     -2.71549737
    H     -2.84737011     -1.66139757     -2.62711069
    H     -4.31266099     -1.40105178     -3.54976120
    C     -4.54279065     -1.02948461     -1.40431221
    H     -3.92282219     -1.39371006     -0.58440873
    H     -5.42154309     -1.66975640     -1.46187455
    C     -4.88729656      0.44025965     -1.14861577
    H     -5.13228253      0.64416212     -0.10695641
    H     -5.74278115      0.73838019     -1.75969002
$end
   
$rem
mem_static = 200
mem_total  = 7500
exchange = b3lyp
basis = G3Large
max_scf_cycles = 50
scf_convergence = 7
symmetry = false
xc_grid = 000075000302
$end
