$molecule
0    1
    C      0.08186219     -1.39144625      0.00001072
    H      0.14628310     -2.47120831      0.00003659
    C      0.03997760     -0.69569263     -1.20721012
    H      0.07101373     -1.23545287     -2.14394710
    C     -0.04161680      0.69565717     -1.20711847
    H     -0.07464775      1.23535337     -2.14369223
    C     -0.08142538      1.39135101     -0.00001072
    H     -0.14637492      2.47080820     -0.00000000
    C     -0.04011488      0.69575377      1.20712437
    H     -0.07308107      1.23543387      2.14370232
    C      0.04158728     -0.69559290      1.20720015
    H      0.07358943     -1.23529390      2.14394887
    C     -4.93377935      0.83691630      0.00292919
    C     -4.84280241     -0.04235357     -1.24173856
    H     -5.65289920     -0.77331362     -1.26169313
    H     -4.90960806      0.56128432     -2.14836479
    H     -3.89444005     -0.58084486     -1.26326049
    C     -6.26495318      1.58332957      0.00342923
    H     -6.35264702      2.21960784      0.88536073
    H     -6.35492315      2.21673957     -0.88034824
    H     -7.10327901      0.88490531      0.00565987
    C     -3.78288300      1.83988653      0.00017438
    H     -3.82692777      2.48123666      0.88223988
    H     -3.82875000      2.47851989     -0.88375609
    H     -2.81955843      1.32839913     -0.00000000
    C     -4.83987738     -0.03865505      1.24999002
    H     -3.89136423     -0.57693266      1.27094451
    H     -4.90475593      0.56762729      2.15499903
    H     -5.64974950     -0.76973472      1.27386895
$end
   
$rem
mem_static = 200
mem_total  = 7500
exchange = b3lyp
basis = G3Large
max_scf_cycles = 50
scf_convergence = 7
symmetry = false
xc_grid = 000075000302
$end
