$molecule
0    1
    C     -2.73866046     -1.39144625     -0.00001072
    H     -2.80308137     -2.47120831     -0.00003659
    C     -2.69677587     -0.69569263      1.20721012
    H     -2.72781200     -1.23545287      2.14394710
    C     -2.61518147      0.69565717      1.20711847
    H     -2.58215051      1.23535337      2.14369223
    C     -2.57537289      1.39135101      0.00001072
    H     -2.51042335      2.47080820     -0.00000000
    C     -2.61668339      0.69575377     -1.20712437
    H     -2.58371720      1.23543387     -2.14370232
    C     -2.69838555     -0.69559290     -1.20720015
    H     -2.73038770     -1.23529390     -2.14394887
    C      1.74057368     -1.48274708     -0.79515056
    C      1.91393983     -2.19872865      0.54197497
    H      2.21497473     -3.23680702      0.39121395
    H      2.67874006     -1.70936573      1.14729915
    H      0.98025547     -2.19089461      1.10588928
    C      3.06191047     -1.50192114     -1.55860210
    H      2.96223168     -0.99473492     -2.51941930
    H      3.84555125     -0.99835698     -0.99053900
    H      3.38711295     -2.52593721     -1.74893356
    C      1.31307769     -0.03870121     -0.54515465
    H      1.18279126      0.49470191     -1.48845526
    H      2.06597952      0.49143801      0.04083227
    H      0.36919090      0.00000000      0.00000000
    C      0.66748328     -2.19406313     -1.61558333
    H     -0.28745987     -2.18596864     -1.08844281
    H      0.52616564     -1.70144649     -2.57900795
    H      0.94638112     -3.23213276     -1.80417809
$end
   
$rem
mem_static = 200
mem_total  = 7500
exchange = b3lyp
basis = G3Large
max_scf_cycles = 50
scf_convergence = 7
symmetry = false
xc_grid = 000075000302
$end
