$molecule
0    1
    N     -3.55734662     -0.91522532      0.03030527
    H     -3.30774350     -1.89500596      0.03735843
    C     -3.66855909     -0.29900472      1.28549724
    O     -3.47154683     -0.93517443      2.30628785
    C     -4.02269255      1.10746513      1.20516116
    H     -4.13313347      1.66639768      2.11823395
    C     -4.20880336      1.68309417     -0.00000000
    H     -4.47238643      2.72429524     -0.11134963
    N     -4.07013268      0.98103344     -1.16805725
    H     -4.19912495      1.42495520     -2.06203204
    C     -3.72673421     -0.35955699     -1.22068719
    O     -3.58979358     -0.96991656     -2.26248098
    C      0.04765163     -1.06991934     -0.64608445
    H     -1.01366010     -1.30027135     -0.54062669
    H      0.48286933     -1.83588540     -1.28566230
    C      0.19148799      0.34196236     -1.21643520
    H     -0.49882230      0.54525637     -2.03405435
    H      1.20798010      0.49548386     -1.58661744
    C     -0.04151528      1.21740135      0.01305884
    H     -1.10456374      1.20658361      0.26353522
    H      0.25392242      2.25659374     -0.12727832
    C      0.76778835      0.50901303      1.10694401
    H      0.38270106      0.70011571      2.10718237
    H      1.79626261      0.86990968      1.08533577
    C      0.72634871     -0.99525817      0.73757941
    H      0.18935669     -1.57478365      1.48649097
    H      1.73573468     -1.40112496      0.69052904
$end
   
$rem
mem_static = 200
mem_total  = 7500
exchange = b3lyp
basis = G3Large
max_scf_cycles = 50
scf_convergence = 7
symmetry = false
xc_grid = 000075000302
$end
