$molecule
0    1
    N     -0.22313579     -0.91522532     -0.03030527
    H     -0.47273891     -1.89500596     -0.03735843
    C     -0.11192331     -0.29900472     -1.28549724
    O     -0.30893558     -0.93517443     -2.30628785
    C      0.24221014      1.10746513     -1.20516116
    H      0.35265105      1.66639768     -2.11823395
    C      0.42832095      1.68309417      0.00000000
    H      0.69190402      2.72429524      0.11134963
    N      0.28965027      0.98103344      1.16805725
    H      0.41864253      1.42495520      2.06203204
    C     -0.05374820     -0.35955699      1.22068719
    O     -0.19068883     -0.96991656      2.26248098
    C     -4.56685815     -1.06991934     -1.31484420
    H     -3.94487318     -1.30027135     -0.44845016
    H     -5.33835767     -1.83588540     -1.37196485
    C     -5.13271456      0.34196236     -1.15423476
    H     -5.49563838      0.54525637     -0.14759894
    H     -5.96154784      0.49548386     -1.84945163
    C     -3.95143986      1.21740135     -1.56719503
    H     -3.20299672      1.20658361     -0.77180625
    H     -4.22069425      2.25659374     -1.75288300
    C     -3.40875933      0.50901303     -2.81501512
    H     -2.34998385      0.70011571     -2.98163893
    H     -3.94170974      0.86990968     -3.69489584
    C     -3.70791863     -0.99525817     -2.59444504
    H     -2.79084619     -1.57478365     -2.50385209
    H     -4.25335843     -1.40112496     -3.44507375
$end
   
$rem
mem_static = 200
mem_total  = 7500
exchange = b3lyp
basis = G3Large
max_scf_cycles = 50
scf_convergence = 7
symmetry = false
xc_grid = 000075000302
$end
