$molecule
0    1
    N     -3.55734662     -0.91522532      0.03030527
    H     -3.30774350     -1.89500596      0.03735843
    C     -3.66855909     -0.29900472      1.28549724
    O     -3.47154683     -0.93517443      2.30628785
    C     -4.02269255      1.10746513      1.20516116
    H     -4.13313347      1.66639768      2.11823395
    C     -4.20880336      1.68309417     -0.00000000
    H     -4.47238643      2.72429524     -0.11134963
    N     -4.07013268      0.98103344     -1.16805725
    H     -4.19912495      1.42495520     -2.06203204
    C     -3.72673421     -0.35955699     -1.22068719
    O     -3.58979358     -0.96991656     -2.26248098
    C      1.00290590     -1.06991934     -0.57539701
    H      0.38092094     -1.30027135     -1.44179105
    H      1.77440542     -1.83588540     -0.51827635
    C      1.56876232      0.34196236     -0.73600644
    H      1.93168613      0.54525637     -1.74264227
    H      2.39759560      0.49548386     -0.04078958
    C      0.38748761      1.21740135     -0.32304617
    H     -0.36095552      1.20658361     -1.11843496
    H      0.65674201      2.25659374     -0.13735821
    C     -0.15519291      0.50901303      0.92477391
    H     -1.21396839      0.70011571      1.09139772
    H      0.37775750      0.86990968      1.80465463
    C      0.14396639     -0.99525817      0.70420383
    H     -0.77310606     -1.57478365      0.61361089
    H      0.68940619     -1.40112496      1.55483254
$end
   
$rem
mem_static = 200
mem_total  = 7500
exchange = b3lyp
basis = G3Large
max_scf_cycles = 50
scf_convergence = 7
symmetry = false
xc_grid = 000075000302
$end
