$molecule
0    1
    N     -4.14480597     -0.91419328      0.02988765
    H     -3.83761055     -1.87729017      0.03710340
    C     -4.28547813     -0.30516999      1.28457155
    O     -4.06728135     -0.93444062      2.30586447
    C     -4.69481619      1.08627230      1.20590488
    H     -4.84657104      1.63408971      2.11977839
    C     -4.86868076      1.66465762     -0.00000000
    H     -5.16608528      2.69680619     -0.11098557
    N     -4.67407661      0.97749288     -1.16791680
    H     -4.77929922      1.42788878     -2.06167000
    C     -4.27864056     -0.34854421     -1.22002579
    O     -4.07602090     -0.93987739     -2.26230183
    C      0.22332930     -0.00031317      0.00043697
    C      1.39557274      0.60196025      0.77024994
    H      2.26469852     -0.05610625      0.73062746
    H      1.68269415      1.56665055      0.34903934
    H      1.13407441      0.75268983      1.81862804
    C      0.61837672     -0.20073930     -1.46017873
    H     -0.20631644     -0.63212542     -2.02927214
    H      0.88949974      0.74908464     -1.92350668
    H      1.47368558     -0.87288479     -1.54164423
    C     -0.97272120      0.94605742      0.07434304
    H     -1.82633712      0.53249297     -0.46590143
    H     -0.72742864      1.91314439     -0.36834613
    H     -1.26824761      1.11681223      1.11139031
    C     -0.14975008     -1.34697025      0.61588630
    H     -0.41331985     -1.23670740      1.66911123
    H     -0.99842674     -1.78846898      0.08989383
    H      0.68662236     -2.04452147      0.55119214
$end
   
$rem
mem_static = 200
mem_total  = 7500
exchange = b3lyp
basis = G3Large
max_scf_cycles = 50
scf_convergence = 7
symmetry = false
xc_grid = 000075000302
$end
