$molecule
0    1
    C     -0.00004119      0.66618869      0.00000000
    H     -0.79823181      1.22838153      0.46330871
    H      0.79903628      1.22811183     -0.46211415
    C     -0.00007040     -0.66618553     -0.00015822
    H     -0.79836414     -1.22842253      0.46308389
    H      0.79888932     -1.22810848     -0.46239310
    C     -5.01571937     -0.28253110      0.33216036
    H     -4.28638273     -0.73832596      1.00232949
    H     -5.81129077      0.13460981      0.94942787
    H     -5.44671094     -1.07375229     -0.27936528
    C     -4.36764951      0.80062571     -0.52009375
    H     -5.10998579      1.22940702     -1.19722674
    H     -3.59090098      0.36232619     -1.15046843
    C     -3.75601453      1.91471388      0.31840317
    H     -4.53102711      2.36151988      0.94836913
    H     -3.01661156      1.48731430      1.00282597
    C     -3.09663506      3.00262439     -0.51824059
    H     -3.83872691      3.43204823     -1.19509678
    H     -2.32830181      2.55003501     -1.14880363
    C     -2.48309550      4.10425614      0.33596006
    H     -1.72408421      3.69959105      1.00601745
    H     -2.01308750      4.87401589     -0.27415172
    H     -3.24255323      4.58374542      0.95352393
$end
   
$rem
mem_static = 200
mem_total  = 7500
exchange = b3lyp
basis = G3Large
max_scf_cycles = 50
scf_convergence = 7
symmetry = false
xc_grid = 000075000302
$end
