$molecule
0    1
    C     -3.81603785      0.66618869     -0.00000000
    H     -3.01784723      1.22838153     -0.46330871
    H     -4.61511532      1.22811183      0.46211415
    C     -3.81600865     -0.66618553      0.00015822
    H     -3.01771490     -1.22842253     -0.46308389
    H     -4.61496837     -1.22810848      0.46239310
    C     -0.04838379     -2.19661322     -0.33216036
    H     -0.80778203     -1.79288659     -1.00232949
    H      0.71065654     -2.67702781     -0.94942787
    H     -0.51810565     -2.96547346      0.27936528
    C      0.56562260     -1.09378985      0.52009375
    H      1.30812625     -1.52228127      1.19722674
    H     -0.20233018     -0.64025565      1.15046843
    C      1.22463376     -0.00705433     -0.31840317
    H      1.99908540     -0.45483191     -0.94836913
    H      0.48479339      0.41958763     -1.00282597
    C      1.83710218      1.10794029      0.51824059
    H      2.58004005      0.67998183      1.19509678
    H      1.06098165      1.54704172      1.14880363
    C      2.48437347      2.19009701     -0.33596006
    H      1.75441758      2.64508752     -1.00601745
    H      2.91600097      2.98201576      0.27415172
    H      3.27935223      1.77213196     -0.95352393
$end
   
$rem
mem_static = 200
mem_total  = 7500
exchange = b3lyp
basis = G3Large
max_scf_cycles = 50
scf_convergence = 7
symmetry = false
xc_grid = 000075000302
$end
