$molecule
0    1
    C     -3.81603785      0.66618869     -0.00000000
    H     -3.01784723      1.22838153     -0.46330871
    H     -4.61511532      1.22811183      0.46211415
    C     -3.81600865     -0.66618553      0.00015822
    H     -3.01771490     -1.22842253     -0.46308389
    H     -4.61496837     -1.22810848      0.46239310
    C      0.83129855     -2.53294177     -0.28463802
    H      0.42201568     -2.56300338     -1.29478225
    H      1.91723817     -2.56947284     -0.37042960
    H      0.50617058     -3.43365520      0.23377825
    C      0.38813976     -1.27086552      0.44360242
    H      0.79199323     -1.27069816      1.45865316
    H     -0.69939823     -1.26206978      0.54360604
    C      0.83107631     -0.00021938     -0.26888089
    H      1.92079140     -0.00078032     -0.36715562
    H      0.43366604     -0.00065678     -1.28862920
    C      0.38929891      1.27162850      0.44213180
    H      0.79338567      1.27247453      1.45699762
    H     -0.69820951      1.26384122      0.54237002
    C      0.83326510      2.53243936     -0.28789014
    H      0.42381020      2.56149475     -1.29800466
    H      0.50901896      3.43407486      0.22940266
    H      1.91926528      2.56796039     -0.37398898
$end
   
$rem
mem_static = 200
mem_total  = 7500
exchange = b3lyp
basis = G3Large
max_scf_cycles = 50
scf_convergence = 7
symmetry = false
xc_grid = 000075000302
$end
