$molecule
0    1
    C     -3.64602991      0.60601837      0.00000000
    H     -3.64608208      1.66786560      0.00043723
    C     -3.64569307     -0.60601974     -0.00005934
    H     -3.64515802     -1.66784931      0.00026991
    C      2.11008467      2.19531484      0.33577462
    H      1.37468938      2.62924970      1.01387055
    H      2.91728437      1.78906253      0.94524018
    H      2.52308172      2.99911113     -0.27211895
    C      1.47571568      1.10634615     -0.51928639
    H      2.21824446      0.69718503     -1.20830546
    H      0.68326648      1.53485962     -1.13672250
    C      0.88933829     -0.02178985      0.31773185
    H      1.68124197     -0.47916024      0.91846876
    H      0.16501751      0.39600428      1.02184392
    C      0.20600744     -1.09331554     -0.52014525
    H      0.93190918     -1.53130489     -1.20914309
    H     -0.56124201     -0.62114051     -1.13752146
    C     -0.41991902     -2.18777791      0.33414314
    H     -1.16365892     -1.76836236      1.01226234
    H     -0.90919915     -2.94704743     -0.27435549
    H      0.33545420     -2.68389166      0.94352027
$end
   
$rem
mem_static = 200
mem_total  = 7500
exchange = b3lyp
basis = G3Large
max_scf_cycles = 50
scf_convergence = 7
symmetry = false
xc_grid = 000075000302
$end
