$molecule
0    1
    C     -3.64602991      0.60601837      0.00000000
    H     -3.64608208      1.66786560      0.00043723
    C     -3.64569307     -0.60601974     -0.00005934
    H     -3.64515802     -1.66784931      0.00026991
    C      0.77553881      2.53033358      0.29477103
    H      0.37514100      2.53843455      1.30893855
    H      1.86158377      2.58210861      0.37149289
    H      0.43328580      3.43294011     -0.20956414
    C      0.34376883      1.27007454     -0.44328587
    H      0.73332784      1.28699500     -1.46380856
    H     -0.74483790      1.24495349     -0.52773229
    C      0.81099212     -0.00010859      0.25346805
    H      1.90333552     -0.00025113      0.31647452
    H      0.43889741     -0.00044866      1.28133562
    C      0.34353967     -1.26974249     -0.44414529
    H      0.73312201     -1.28610152     -1.46465693
    H     -0.74504331     -1.24445164     -0.52853626
    C      0.77515514     -2.53053793      0.29310867
    H      0.37479755     -2.53918336      1.30727984
    H      0.43271906     -3.43272469     -0.21181947
    H      1.86119717     -2.58249844      0.36973011
$end
   
$rem
mem_static = 200
mem_total  = 7500
exchange = b3lyp
basis = G3Large
max_scf_cycles = 50
scf_convergence = 7
symmetry = false
xc_grid = 000075000302
$end
