$molecule
0    1
    C     -0.06741017      1.20559689     -0.69663791
    H     -0.12002894      2.14077705     -1.23726246
    C     -0.01897860      1.20723230      0.69663791
    H     -0.03533497      2.14361220      1.23739369
    C      0.04820086      0.00172416      1.39318798
    H      0.08164538      0.00275052      2.47397728
    C      0.06903383     -1.20529154      0.69656340
    H      0.12293693     -2.14010362      1.23785468
    C      0.01942128     -1.20734522     -0.69653737
    H      0.03427096     -2.14370078     -1.23763026
    C     -0.04966067     -0.00189515     -1.39325278
    H     -0.09071671     -0.00359080     -2.47387087
    C     -3.45768822     -0.39543530      1.94931165
    H     -2.73281563      0.00000000      1.25121137
    C     -3.50452112     -1.76536063      2.20240940
    H     -2.81376715     -2.42686825      1.69720705
    C     -4.43644882     -2.27931531      3.10250352
    H     -4.47165850     -3.34258347      3.29804115
    C     -5.32381022     -1.42241825      3.75165201
    H     -6.04713292     -1.82043542      4.45037979
    C     -5.27870551     -0.05233530      3.49984908
    H     -5.96723048      0.61264559      4.00346674
    C     -4.34622481      0.45976766      2.59900437
    H     -4.31121726      1.52317924      2.40357876
$end
   
$rem
mem_static = 200
mem_total  = 7500
exchange = b3lyp
basis = G3Large
max_scf_cycles = 50
scf_convergence = 7
symmetry = false
xc_grid = 000075000302
$end
