$molecule
0    1
    N     -2.53725765     -1.39359517     -0.00000761
    C     -2.55386539     -0.69194767      1.14200660
    H     -2.53469041     -1.27296190      2.05574787
    C     -2.59097646      0.69941082      1.19442928
    H     -2.60196489      1.20500527      2.14948564
    C     -2.61230317      1.41264648     -0.00000000
    H     -2.64173327      2.49344354     -0.00006231
    C     -2.59486028      0.69927067     -1.19441562
    H     -2.60890095      1.20479096     -2.14947011
    C     -2.55728935     -0.69200337     -1.14200591
    H     -2.54079400     -1.27306505     -2.05576652
    N      2.87200671     -2.18909968      1.56618484
    C      1.80677158     -2.73528569      0.96265176
    H      1.78050650     -3.81790445      0.94043152
    C      0.77544068     -1.99706690      0.38701382
    H     -0.06029807     -2.49260814     -0.08712863
    C      0.84502392     -0.60809050      0.43575645
    H      0.06363228      0.00000000      0.00000000
    C      1.94335896     -0.02371039      1.05824003
    H      2.04522168      1.05058054      1.12303796
    C      2.92227134     -0.85064579      1.60370177
    H      3.78817098     -0.42287268      2.09418601
$end
   
$rem
mem_static = 200
mem_total  = 7500
exchange = b3lyp
basis = G3Large
max_scf_cycles = 50
scf_convergence = 7
symmetry = false
xc_grid = 000075000302
$end
