$molecule
0    1
    N     -2.53725765     -1.39359517     -0.00000761
    C     -2.55386539     -0.69194767      1.14200660
    H     -2.53469041     -1.27296190      2.05574787
    C     -2.59097646      0.69941082      1.19442928
    H     -2.60196489      1.20500527      2.14948564
    C     -2.61230317      1.41264648     -0.00000000
    H     -2.64173327      2.49344354     -0.00006231
    C     -2.59486028      0.69927067     -1.19441562
    H     -2.60890095      1.20479096     -2.14947011
    C     -2.55728935     -0.69200337     -1.14200591
    H     -2.54079400     -1.27306505     -2.05576652
    N      2.87806257     -3.50342395     -0.04783135
    C      1.54470572     -3.36429129     -0.03788877
    H      0.97407588     -4.28493846     -0.04399952
    C      0.89105840     -2.13448620     -0.02074040
    H     -0.18882598     -2.08321640     -0.01349043
    C      1.65884021     -0.97391343     -0.01331966
    H      1.18815366      0.00000000      0.00000000
    C      3.04432485     -1.09903934     -0.02340059
    H      3.68592568     -0.22898343     -0.01821529
    C      3.60123329     -2.37543333     -0.04047305
    H      4.67693048     -2.50253755     -0.04865107
$end
   
$rem
mem_static = 200
mem_total  = 7500
exchange = b3lyp
basis = G3Large
max_scf_cycles = 50
scf_convergence = 7
symmetry = false
xc_grid = 000075000302
$end
