$molecule
0    1
    N     -0.03694286     -1.39359517      0.00000761
    C     -0.02033512     -0.69194767     -1.14200660
    H     -0.03951010     -1.27296190     -2.05574787
    C      0.01677595      0.69941082     -1.19442928
    H      0.02776438      1.20500527     -2.14948564
    C      0.03810266      1.41264648     -0.00000000
    H      0.06753276      2.49344354      0.00006231
    C      0.02065977      0.69927067      1.19441562
    H      0.03470044      1.20479096      2.14947011
    C     -0.01691116     -0.69200337      1.14200591
    H     -0.03340651     -1.27306505      2.05576652
    N     -5.52580995     -2.18909968     -2.85328510
    C     -4.46057482     -2.73528569     -2.24975201
    H     -4.43430974     -3.81790445     -2.22753177
    C     -3.42924392     -1.99706690     -1.67411408
    H     -2.59350517     -2.49260814     -1.19997163
    C     -3.49882716     -0.60809050     -1.72285671
    H     -2.71743553     -0.00000000     -1.28710026
    C     -4.59716221     -0.02371039     -2.34534029
    H     -4.69902492      1.05058054     -2.41013822
    C     -5.57607458     -0.85064579     -2.89080203
    H     -6.44197422     -0.42287268     -3.38128626
$end
   
$rem
mem_static = 200
mem_total  = 7500
exchange = b3lyp
basis = G3Large
max_scf_cycles = 50
scf_convergence = 7
symmetry = false
xc_grid = 000075000302
$end
