$molecule
0    1
    N     -0.03694286     -1.39359517      0.00000761
    C     -0.02033512     -0.69194767     -1.14200660
    H     -0.03951010     -1.27296190     -2.05574787
    C      0.01677595      0.69941082     -1.19442928
    H      0.02776438      1.20500527     -2.14948564
    C      0.03810266      1.41264648     -0.00000000
    H      0.06753276      2.49344354      0.00006231
    C      0.02065977      0.69927067      1.19441562
    H      0.03470044      1.20479096      2.14947011
    C     -0.01691116     -0.69200337      1.14200591
    H     -0.03340651     -1.27306505      2.05576652
    N     -5.48043949     -2.18909968      2.93613143
    C     -4.42514694     -2.73528569      2.31537729
    H     -4.39277110     -3.81790445      2.30374118
    C     -3.41096441     -1.99706690      1.71003750
    H     -2.58247563     -2.49260814      1.22333774
    C     -3.48796839     -0.60809050      1.74592704
    H     -2.71989641     -0.00000000      1.28710026
    C     -4.57622251     -0.02371039      2.38587130
    H     -4.68327052      1.05058054      2.44168803
    C     -5.53806242     -0.85064579      2.96090341
    H     -6.39578404     -0.42287268      3.46555238
$end
   
$rem
mem_static = 200
mem_total  = 7500
exchange = b3lyp
basis = G3Large
max_scf_cycles = 50
scf_convergence = 7
symmetry = false
xc_grid = 000075000302
$end
