$molecule
0    1
    C      0.05501531      1.19524262      0.71535551
    H      0.10030240      2.12196101      1.27120780
    C     -0.00793044     -0.02079865      1.39408463
    H     -0.01523328     -0.03674450      2.47528226
    C     -0.06106286     -1.21627642      0.67865542
    H     -0.10765733     -2.15965929      1.20533400
    C     -0.05409785     -1.19532997     -0.71542263
    H     -0.09530426     -2.12248588     -1.27060594
    C      0.00591774      0.02103934     -1.39405121
    H      0.00914613      0.03757495     -2.47526534
    C      0.06187576      1.21614311     -0.67862166
    H      0.11211074      2.15911501     -1.20595349
    N     -5.81785988      1.62225711      2.93194838
    C     -4.82553444      2.36471874      2.42152472
    H     -4.94423088      3.43774756      2.51052947
    C     -3.69575055      1.83077098      1.80715140
    H     -2.92873000      2.48315660      1.41432870
    C     -3.57509037      0.44832243      1.70967255
    H     -2.71127575     -0.00000000      1.23876461
    C     -4.59689109     -0.33599957      2.23497048
    H     -4.55421236     -1.41509757      2.18636976
    C     -5.68769409      0.29237654      2.83076246
    H     -6.49670084     -0.29517142      3.24739295
$end
   
$rem
mem_static = 200
mem_total  = 7500
exchange = b3lyp
basis = G3Large
max_scf_cycles = 50
scf_convergence = 7
symmetry = false
xc_grid = 000075000302
$end
