$molecule
0    1
    C     -2.53254452      1.19524262     -0.71535551
    H     -2.57783162      2.12196101     -1.27120780
    C     -2.46959877     -0.02079865     -1.39408463
    H     -2.46229593     -0.03674450     -2.47528226
    C     -2.41646635     -1.21627642     -0.67865542
    H     -2.36987188     -2.15965929     -1.20533400
    C     -2.42343136     -1.19532997      0.71542263
    H     -2.38222495     -2.12248588      1.27060594
    C     -2.48344695      0.02103934      1.39405121
    H     -2.48667535      0.03757495      2.47526534
    C     -2.53940497      1.21614311      0.67862166
    H     -2.58963996      2.15911501      1.20595349
    N      3.09017631      1.62225711      1.84378890
    C      2.15197373      2.36471874      1.23962168
    H      2.28840233      3.43774756      1.29791344
    C      1.05501888      1.83077098      0.56838679
    H      0.33131418      2.48315660      0.10053886
    C      0.91026964      0.44832243      0.51263144
    H      0.07054408      0.00000000      0.00000000
    C      1.87609135     -0.33599957      1.13488786
    H      1.81266253     -1.41509757      1.12222735
    C      2.93746384      0.29237654      1.78165497
    H      3.70277980     -0.29517142      2.27396012
$end
   
$rem
mem_static = 200
mem_total  = 7500
exchange = b3lyp
basis = G3Large
max_scf_cycles = 50
scf_convergence = 7
symmetry = false
xc_grid = 000075000302
$end
