$molecule
0    1
    C     -2.43519146     -1.39416529     -0.00002985
    H     -2.43045230     -2.47544175     -0.00008684
    C     -2.43557777     -0.69715205      1.20741435
    H     -2.43136193     -1.23783014      2.14379257
    C     -2.43583238      0.69703705      1.20735590
    H     -2.43171660      1.23784492      2.14366983
    C     -2.43589512      1.39420421      0.00001939
    H     -2.43179863      2.47547244     -0.00000000
    C     -2.43541639      0.69711865     -1.20737892
    H     -2.43068991      1.23773256     -2.14380025
    C     -2.43491584     -0.69705276     -1.20736264
    H     -2.42990186     -1.23765663     -2.14379234
    C      0.98335666      0.53630816      0.00586205
    H      0.06416510      0.00000000      0.00000000
    C      2.03054912      1.14752834      0.01297945
    H      2.94714686      1.68255602      0.01911582
$end
   
$rem
mem_static = 200
mem_total  = 7500
exchange = b3lyp
basis = G3Large
max_scf_cycles = 50
scf_convergence = 7
symmetry = false
xc_grid = 000075000302
$end
