$molecule
0    1
    C      0.04868042      0.69782353     -1.20697577
    H      0.05198619      0.15611512     -2.14270698
    C      0.08101621      2.09196921     -1.20677651
    H      0.11249030      2.63203152     -2.14298957
    C      0.06560898      2.78958018      0.00012837
    H      0.08417276      3.87060077      0.00000000
    C      0.02190731      2.09322325      1.20716819
    H      0.00726846      2.63429579      2.14321434
    C     -0.01079813      0.69911747      1.20731408
    H     -0.05461004      0.15804549      2.14235590
    C      0.00000000      0.00000000      0.00000000
    H     -0.04795279     -1.07940794     -0.00001960
    C     -4.30031339      1.93546777      0.00000000
    O     -4.34787607      0.72840558      0.07153196
    O     -3.14350572      2.62909310     -0.05735850
    H     -2.42744036      1.97063311     -0.02747129
    C     -5.48407543      2.85639993     -0.03454670
    H     -6.39731489      2.27416752     -0.01026958
    H     -5.44600191      3.52972842      0.81871205
    H     -5.44864039      3.46549976     -0.93459009
$end
   
$rem
mem_static = 200
mem_total  = 7500
exchange = b3lyp
basis = G3Large
max_scf_cycles = 50
scf_convergence = 7
symmetry = false
xc_grid = 000075000302
$end
