$molecule
0    1
    C      0.00396247     -0.00082879     -0.69768646
    H     -0.20334396     -0.92090225     -1.22634683
    C      0.26593032      1.17849576     -1.39395676
    H      0.27484292      1.17712186     -2.47556956
    C      0.51717291      2.35967619     -0.69696271
    H      0.71992307      3.27436482     -1.23736771
    C      0.50911599      2.36140886      0.69696271
    H      0.70550994      3.27742015      1.23741409
    C      0.24988295      1.18192207      1.39393457
    H      0.24598407      1.18318362      2.47552085
    C     -0.00396247      0.00082879      0.69768646
    H     -0.21789471     -0.91778036      1.22616309
    C     -3.82177597      0.03357160     -0.04517438
    O     -3.22711637     -1.03387767     -0.00943454
    N     -3.18077226      1.23286804     -0.00903520
    H     -2.17387212      1.24135327      0.00000000
    H     -3.68089161      2.09667079     -0.08372823
    C     -5.32831681      0.10833281     -0.14312882
    H     -5.62634731     -0.22710141     -1.13432064
    H     -5.72328500      1.10681898      0.02680118
    H     -5.75531114     -0.57950060      0.58075742
$end
   
$rem
mem_static = 200
mem_total  = 7500
exchange = b3lyp
basis = G3Large
max_scf_cycles = 50
scf_convergence = 7
symmetry = false
xc_grid = 000075000302
$end
