$molecule
0    1
    C      0.07421697      0.69317962      1.20755689
    H      0.13067162      1.23055539      2.14414463
    C     -0.07429764     -0.69294537      1.20789541
    H     -0.13571701     -1.23032426      2.14405407
    C     -0.14806215     -1.38637524      0.00000000
    H     -0.26470343     -2.46136618      0.00000000
    C     -0.07429764     -0.69294537     -1.20789541
    H     -0.13571701     -1.23032426     -2.14405407
    C      0.07421697      0.69317962     -1.20755689
    H      0.13067162      1.23055539     -2.14414463
    C      0.14891395      1.38590147     -0.00000000
    H      0.26656643      2.46096666     -0.00000000
    O     -3.35488318      1.68308863      0.00000000
    H     -2.82570659      2.48285813      0.00000000
    H     -2.69050557      0.98739853      0.00000000
$end
   
$rem
mem_static = 200
mem_total  = 7500
exchange = b3lyp
basis = G3Large
max_scf_cycles = 50
scf_convergence = 7
symmetry = false
xc_grid = 000075000302
$end
