$molecule
0    1
    C     -3.56857584      1.38894301      0.00003446
    H     -3.66180488      2.46610966     -0.00000000
    C     -3.50341782      0.69433699     -1.20781822
    H     -3.54576515      1.23353365     -2.14396768
    C     -3.37835156     -0.69441895     -1.20739276
    H     -3.32658252     -1.23234759     -2.14396588
    C     -3.31823234     -1.38867605     -0.00004152
    H     -3.22022201     -2.46561554     -0.00009465
    C     -3.37954393     -0.69455742      1.20736766
    H     -3.32893849     -1.23260825      2.14394575
    C     -3.50463217      0.69417447      1.20785596
    H     -3.54786526      1.23328685      2.14401594
    O     -0.08798491      0.66987623     -0.09821733
    H     -0.92040373      0.67883077     -0.58104110
    C      0.24717044     -0.68577430      0.12901847
    H      1.18782899     -0.69527342      0.67296281
    H     -0.50276974     -1.20363323      0.73138954
    H      0.38349952     -1.24136869     -0.80166691
$end
   
$rem
mem_static = 200
mem_total  = 7500
exchange = b3lyp
basis = G3Large
max_scf_cycles = 50
scf_convergence = 7
symmetry = false
xc_grid = 000075000302
$end
