$molecule
0    1
    C     -0.05464924      1.32579990      0.42928166
    H     -0.09694133      2.35376309      0.76230218
    C      0.07418272      0.29605065      1.36071003
    H      0.12912429      0.52567993      2.41581833
    C      0.13068062     -1.02909552      0.93154141
    H      0.23212379     -1.82728229      1.65392742
    C      0.05530376     -1.32566962     -0.42884995
    H      0.09954755     -2.35364179     -0.76166730
    C     -0.07605799     -0.29671210     -1.36083960
    H     -0.13522906     -0.52635683     -2.41585081
    C     -0.12957570      1.02962701     -0.93180178
    H     -0.22724506      1.82783409     -1.65502758
    C     -4.97361174     -0.26974437      0.00000000
    H     -4.15139918      0.32953145     -0.38383834
    H     -5.38382974      0.20945342      0.88641783
    H     -5.76574655     -0.31982373     -0.74276652
    C     -4.56600514     -1.67998720      0.36183775
    O     -5.38581646     -2.51487440      0.72558707
    N     -3.23655822     -1.93811857      0.24783808
    H     -2.61746566     -1.18510939     -0.00000000
    C     -2.67618812     -3.22040600      0.60368121
    H     -3.50259365     -3.91522553      0.71825629
    H     -2.00758826     -3.57517827     -0.17817540
    H     -2.12387981     -3.17085772      1.54239496
$end
   
$rem
mem_static = 200
mem_total  = 7500
exchange = b3lyp
basis = G3Large
max_scf_cycles = 50
scf_convergence = 7
symmetry = false
xc_grid = 000075000302
$end
