$molecule
0    1
    C     -2.31556955      1.32579990     -0.42928166
    H     -2.27327745      2.35376309     -0.76230218
    C     -2.44440151      0.29605065     -1.36071003
    H     -2.49934308      0.52567993     -2.41581833
    C     -2.50089941     -1.02909552     -0.93154141
    H     -2.60234258     -1.82728229     -1.65392742
    C     -2.42552255     -1.32566962      0.42884995
    H     -2.46976634     -2.35364179      0.76166730
    C     -2.29416080     -0.29671210      1.36083960
    H     -2.23498973     -0.52635683      2.41585081
    C     -2.24064309      1.02962701      0.93180178
    H     -2.14297373      1.82783409      1.65502758
    C      1.46176696      1.97080240      0.79139992
    H      0.39369433      2.07868421      0.61796624
    H      2.00514065      2.59090886      0.08156972
    H      1.70616982      2.32349981      1.79017888
    C      1.94763394      0.54569299      0.65410112
    O      3.10588386      0.23256512      0.90279547
    N      1.00532309     -0.34257880      0.24169317
    H      0.09102209      0.00000000      0.00000000
    C      1.31821382     -1.73325733      0.01144846
    H      2.29617119     -1.92178594      0.44377250
    H      0.57945652     -2.37479907      0.48773698
    H      1.35188443     -1.96650142     -1.05304508
$end
   
$rem
mem_static = 200
mem_total  = 7500
exchange = b3lyp
basis = G3Large
max_scf_cycles = 50
scf_convergence = 7
symmetry = false
xc_grid = 000075000302
$end
