$molecule
0    1
    C     -2.31556955      1.32579990     -0.42928166
    H     -2.27327745      2.35376309     -0.76230218
    C     -2.44440151      0.29605065     -1.36071003
    H     -2.49934308      0.52567993     -2.41581833
    C     -2.50089941     -1.02909552     -0.93154141
    H     -2.60234258     -1.82728229     -1.65392742
    C     -2.42552255     -1.32566962      0.42884995
    H     -2.46976634     -2.35364179      0.76166730
    C     -2.29416080     -0.29671210      1.36083960
    H     -2.23498973     -0.52635683      2.41585081
    C     -2.24064309      1.02962701      0.93180178
    H     -2.14297373      1.82783409      1.65502758
    C      1.11791012      2.49816487      0.00000000
    H      0.18781576      2.08574582      0.38383834
    H      0.90802166      3.09302298     -0.88641783
    H      1.55734753      3.15913406      0.74276652
    C      2.13541293      1.44004579     -0.36183775
    O      3.26835212      1.73257962     -0.72558707
    N      1.69423780      0.15964530     -0.24783808
    H      0.73256644      0.00000000      0.00000000
    C      2.52454623     -0.96679315     -0.60368121
    H      3.53948037     -0.59851475     -0.71825629
    H      2.49748811     -1.72320376      0.17817540
    H      2.20548202     -1.42033205     -1.54239496
$end
   
$rem
mem_static = 200
mem_total  = 7500
exchange = b3lyp
basis = G3Large
max_scf_cycles = 50
scf_convergence = 7
symmetry = false
xc_grid = 000075000302
$end
