$molecule
0    1
    C     -0.05464924      1.32579990      0.42928166
    H     -0.09694133      2.35376309      0.76230218
    C      0.07418272      0.29605065      1.36071003
    H      0.12912429      0.52567993      2.41581833
    C      0.13068062     -1.02909552      0.93154141
    H      0.23212379     -1.82728229      1.65392742
    C      0.05530376     -1.32566962     -0.42884995
    H      0.09954755     -2.35364179     -0.76166730
    C     -0.07605799     -0.29671210     -1.36083960
    H     -0.13522906     -0.52635683     -2.41585081
    C     -0.12957570      1.02962701     -0.93180178
    H     -0.22724506      1.82783409     -1.65502758
    C     -3.91944101      1.97080240     -1.97650932
    H     -2.85136838      2.07868421     -1.80307563
    H     -4.46281471      2.59090886     -1.26667912
    H     -4.16384387      2.32349981     -2.97528827
    C     -4.40530799      0.54569299     -1.83921051
    O     -5.56355791      0.23256512     -2.08790487
    N     -3.46299714     -0.34257880     -1.42680256
    H     -2.54869614     -0.00000000     -1.18510939
    C     -3.77588787     -1.73325733     -1.19655785
    H     -4.75384524     -1.92178594     -1.62888190
    H     -3.03713057     -2.37479907     -1.67284637
    H     -3.80955848     -1.96650142     -0.13206432
$end
   
$rem
mem_static = 200
mem_total  = 7500
exchange = b3lyp
basis = G3Large
max_scf_cycles = 50
scf_convergence = 7
symmetry = false
xc_grid = 000075000302
$end
