$molecule
0    1
    N      0.47505601      0.91597414     -0.00259397
    C      0.49227527     -0.42663190      0.00755715
    H     -0.47505601     -0.91597414      0.00259397
    C      1.66636020     -1.17618933      0.02408888
    H      1.61503064     -2.25565349      0.03159854
    C      2.88897092     -0.51344265      0.03074710
    H      3.81919662     -1.06453641      0.04367307
    C      2.88459901      0.87747129      0.02042274
    H      3.80648235      1.44152430      0.02504168
    C      1.66076482      1.54062493      0.00389091
    H      1.62698643      2.62326092     -0.00450705
    N     -3.53720163      0.68403401      0.00810806
    C     -4.87634779      0.73577374      0.02016120
    H     -5.38822690     -0.21882811      0.02556260
    C     -5.60482906      1.92198979      0.02583604
    H     -6.68518169      1.89432485      0.03570293
    C     -4.91338170      3.12889020      0.01857360
    H     -5.44357459      4.07126588      0.02264139
    C     -3.52322602      3.09169668      0.00600834
    H     -2.93921947      4.00100474      0.00000000
    C     -2.88102827      1.85552288      0.00124899
    H     -1.79864635      1.79575703     -0.00810806
$end
   
$rem
mem_static = 200
mem_total  = 7500
exchange = b3lyp
basis = G3Large
max_scf_cycles = 50
scf_convergence = 7
symmetry = false
xc_grid = 000075000302
$end
