$molecule
0    1
    N      0.47505601      0.91597414     -0.00259397
    C      0.49227527     -0.42663190      0.00755715
    H     -0.47505601     -0.91597414      0.00259397
    C      1.66636020     -1.17618933      0.02408888
    H      1.61503064     -2.25565349      0.03159854
    C      2.88897092     -0.51344265      0.03074710
    H      3.81919662     -1.06453641      0.04367307
    C      2.88459901      0.87747129      0.02042274
    H      3.80648235      1.44152430      0.02504168
    C      1.66076482      1.54062493      0.00389091
    H      1.62698643      2.62326092     -0.00450705
    N     -2.63465807     -0.91602901     -1.47031661
    C     -3.66744822     -1.54079416     -2.05268052
    H     -3.64070353     -2.62344317     -2.03100246
    C     -4.73029321     -0.87774157     -2.65976162
    H     -5.53351186     -1.44187643     -3.11210682
    C     -4.73067968      0.51318852     -2.66837069
    H     -5.53841888      1.06421337     -3.13002206
    C     -3.66567502      1.17605583     -2.06799908
    H     -3.61840788      2.25554299     -2.04764721
    C     -2.64636808      0.42659679     -1.48499757
    H     -1.80402374      0.91602901     -1.00947442
$end
   
$rem
mem_static = 200
mem_total  = 7500
exchange = b3lyp
basis = G3Large
max_scf_cycles = 50
scf_convergence = 7
symmetry = false
xc_grid = 000075000302
$end
