$molecule
0    1
    N     -2.95484705      0.91597414      0.00259397
    C     -2.97206631     -0.42663190     -0.00755715
    H     -2.00473502     -0.91597414     -0.00259397
    C     -4.14615124     -1.17618933     -0.02408888
    H     -4.09482168     -2.25565349     -0.03159854
    C     -5.36876196     -0.51344265     -0.03074710
    H     -6.29898766     -1.06453641     -0.04367307
    C     -5.36439005      0.87747129     -0.02042274
    H     -6.28627339      1.44152430     -0.02504168
    C     -4.14055585      1.54062493     -0.00389091
    H     -4.10677747      2.62326092      0.00450705
    N      0.45903122     -0.91602901     -0.24446467
    C      1.47976823     -1.54079416     -0.84770522
    H      1.44762214     -2.62344317     -0.83538267
    C      2.53693838     -0.87774157     -1.46461544
    H      3.33029014     -1.44187643     -1.93405059
    C      2.54458729      0.51318852     -1.46064559
    H      3.34825870      1.06421337     -1.92934257
    C      1.49214790      1.17605583     -0.83851031
    H      1.45088910      2.25554299     -0.80775169
    C      0.47760030      0.42659679     -0.24726536
    H     -0.35538699      0.91602901      0.24446467
$end
   
$rem
mem_static = 200
mem_total  = 7500
exchange = b3lyp
basis = G3Large
max_scf_cycles = 50
scf_convergence = 7
symmetry = false
xc_grid = 000075000302
$end
