$molecule
0    1
    C     -2.22798374     -0.59566805      0.00000525
    H     -1.97865159     -1.63011710      0.00006033
    C     -2.45674907      0.59566805     -0.00000525
    H     -2.67663422      1.63480569      0.00000000
    C      1.25561440     -1.31639265     -0.66721745
    O      0.56679727     -2.23061038     -0.27117504
    O      0.93778228     -0.01784138     -0.48516971
    H      0.09384987      0.00000000      0.00000000
    C      2.54941196     -1.45953508     -1.41043331
    H      2.77971483     -2.51015681     -1.53903471
    H      2.46957111     -0.97041743     -2.37838749
    H      3.34416456     -0.96456589     -0.85740977
$end
   
$rem
mem_static = 200
mem_total  = 7500
exchange = b3lyp
basis = G3Large
max_scf_cycles = 50
scf_convergence = 7
symmetry = false
xc_grid = 000075000302
$end
