$molecule
0    1
    C     -0.83743501      0.27648247      2.39792235
    H     -0.03675587      0.93667308      2.73118428
    H     -1.69273760      0.90061383      2.13993846
    H     -1.11681070     -0.35708720      3.23896628
    C     -0.38977888     -0.54867560      1.19806518
    H     -1.18333911     -1.24344700      0.91171766
    H      0.47040984     -1.16411625      1.47221873
    C     -0.02303728      0.31744898      0.00000000
    H     -0.89086389      0.91526576     -0.29334654
    H      0.75057430      1.03215152      0.29580102
    C      0.47233074     -0.48641054     -1.19483600
    H     -0.27828154     -1.23348776     -1.46491930
    H      1.36515533     -1.04525446     -0.90531149
    C      0.78095051      0.39029365     -2.40124998
    H      1.54735295      1.12587628     -2.15775812
    H      1.13686488     -0.19617860     -3.24692787
    H     -0.10767536      0.93505534     -2.72039002
    C     -3.65601664      1.99538365      0.01482059
    O     -3.03160769      2.96293286      0.38232338
    O     -4.45145578      1.27998262      0.84733427
    H     -4.37504402      1.71290731      1.71066418
    C     -3.66486291      1.42170981     -1.36840448
    H     -3.04598290      2.03040588     -2.01675552
    H     -3.28593065      0.40240457     -1.33910868
    H     -4.68459743      1.38402712     -1.74418278
$end
   
$rem
mem_static = 200
mem_total  = 7500
exchange = b3lyp
basis = G3Large
max_scf_cycles = 50
scf_convergence = 7
symmetry = false
xc_grid = 000075000302
$end
