$molecule
0    1
    C      0.16851813      0.31602088      2.52900883
    H      1.13202225      0.82600094      2.52155566
    H     -0.60409430      1.08229505      2.60298433
    H      0.11937248     -0.29340158      3.43014993
    C     -0.01134830     -0.52224379      1.26988945
    H     -0.95791294     -1.06503601      1.30791690
    H      0.77583778     -1.27808525      1.22020277
    C      0.02795360      0.31753923     -0.00000000
    H     -0.77578218      1.06069449      0.03243256
    H      0.96429897      0.88362759     -0.03357700
    C     -0.10961754     -0.51068351     -1.27042066
    H     -1.03851706     -1.08172811     -1.22161012
    H      0.70232390     -1.24052199     -1.30863623
    C     -0.08306288      0.34748750     -2.52862997
    H      0.85577561      0.89608974     -2.60707191
    H     -0.19377252     -0.25329434     -3.43048872
    H     -0.88950215      1.08156228     -2.51204280
    C     -3.63184037     -1.88811922     -0.01526672
    O     -2.82777390     -2.80664164     -0.02466833
    N     -4.07919833     -1.29845975     -1.16016959
    H     -3.65407471     -1.57352025     -2.02786899
    H     -4.65185382     -0.47735687     -1.13819118
    C     -4.19500580     -1.31901431      1.26520152
    H     -5.07080254     -0.69410196      1.10892334
    H     -3.41911771     -0.72777725      1.74874102
    H     -4.44698357     -2.14145217      1.92781804
$end
   
$rem
mem_static = 200
mem_total  = 7500
exchange = b3lyp
basis = G3Large
max_scf_cycles = 50
scf_convergence = 7
symmetry = false
xc_grid = 000075000302
$end
