$molecule
0    1
    C     -3.37168851     -0.70603722      1.19676005
    H     -3.28706506     -1.25363899      2.12547291
    C     -3.26940215      0.68405967      1.19776059
    H     -3.09616584      1.21358310      2.12411233
    C     -3.37644686      1.38964408      0.00036400
    H     -3.29680030      2.46810796     -0.00000000
    C     -3.58223628      0.70655835     -1.19737508
    H     -3.66185320      1.25501934     -2.12601323
    C     -3.68390001     -0.68403295     -1.19750877
    H     -3.84541650     -1.21440138     -2.12609478
    C     -3.57972729     -1.39018642      0.00016955
    H     -3.66011262     -2.46873581      0.00049284
    C      0.25599513      1.22087147      0.54654135
    O      0.07177936      1.47804842      1.71352970
    O     -0.14942549      2.04823252     -0.45055827
    H     -0.56980760      2.79610276     -0.00113400
    C      0.92505582      0.00000000      0.00000000
    H      1.33113604     -0.58510502      0.81636126
    H      0.19049619     -0.59082440     -0.54549414
    H      1.71074455      0.28701954     -0.69468716
$end
   
$rem
mem_static = 200
mem_total  = 7500
exchange = b3lyp
basis = G3Large
max_scf_cycles = 50
scf_convergence = 7
symmetry = false
xc_grid = 000075000302
$end
