$molecule
0    1
    C     -3.37168851     -0.70603722      1.19676005
    H     -3.28706506     -1.25363899      2.12547291
    C     -3.26940215      0.68405967      1.19776059
    H     -3.09616584      1.21358310      2.12411233
    C     -3.37644686      1.38964408      0.00036400
    H     -3.29680030      2.46810796     -0.00000000
    C     -3.58223628      0.70655835     -1.19737508
    H     -3.66185320      1.25501934     -2.12601323
    C     -3.68390001     -0.68403295     -1.19750877
    H     -3.84541650     -1.21440138     -2.12609478
    C     -3.57972729     -1.39018642      0.00016955
    H     -3.66011262     -2.46873581      0.00049284
    C      0.26797784      1.39183605      0.48882478
    O     -0.34231729      1.70666572      1.48399281
    O      0.82072002      2.31106205     -0.34340083
    H      0.60455861      3.16892774      0.05074877
    C      0.51439117      0.00000000      0.00000000
    H      0.15741280     -0.70975592      0.73655123
    H     -0.01961595     -0.14438912     -0.93819153
    H      1.57528440     -0.14427815     -0.18964864
$end
   
$rem
mem_static = 200
mem_total  = 7500
exchange = b3lyp
basis = G3Large
max_scf_cycles = 50
scf_convergence = 7
symmetry = false
xc_grid = 000075000302
$end
