$molecule
0    1
    N     -2.25296724      0.00000000     -0.00000000
    C     -2.94951143      1.14491094      0.00000000
    H     -2.36525195      2.05568355      0.04506045
    C     -4.33925468      1.20051155     -0.05393479
    H     -4.84307522      2.15636402     -0.05132640
    C     -5.05372037      0.00851164     -0.11103472
    H     -6.13395908      0.01179136     -0.15322902
    C     -4.34414276     -1.18778276     -0.11253986
    H     -4.85195762     -2.14048352     -0.15672388
    C     -2.95420608     -1.14063972     -0.05615145
    H     -2.37373823     -2.05488219     -0.05599065
    C      2.07284954     -1.14717307     -0.06156253
    H      2.98996620     -1.68046834     -0.09101013
    C      1.02420052     -0.53751350     -0.02801087
    H      0.09822775      0.00000000     -0.00000000
$end
   
$rem
mem_static = 200
mem_total  = 7500
exchange = b3lyp
basis = G3Large
max_scf_cycles = 50
scf_convergence = 7
symmetry = false
xc_grid = 000075000302
$end
