$molecule
1    1
   Cl      0.00000000      0.00000000     -0.59240049
    H     -0.97096602      0.00000000      0.29620025
    H      0.97096602      0.00000000      0.29620025
$end
   
$rem
mem_static = 200
mem_total  = 7500
exchange = b3lyp
basis = G3Large
max_scf_cycles = 50
scf_convergence = 7
symmetry = false
xc_grid = 000075000302
$end
