$molecule
1    1
    C     -4.49071698     -0.28469650      0.00000000
    C     -3.34099798      0.42212915      0.00000000
    C     -2.07281693     -0.22099861      0.00000000
    C     -0.86132164      0.43993167      0.00000000
    C      0.34422377     -0.25744340      0.00000000
    C      1.61533678      0.34350079      0.00000000
    C      2.75464325     -0.40791586      0.00000000
    C      4.12809365      0.12393236      0.00000000
    H     -4.49124042     -1.36926065      0.00000000
    H     -5.45598380      0.20582172      0.00000000
    H     -3.36895438      1.50674330      0.00000000
    H     -2.06716130     -1.30882354      0.00000000
    H     -0.84530434      1.52513222      0.00000000
    H      0.30215423     -1.34455818      0.00000000
    H      1.68417206      1.42681917      0.00000000
    H      2.65151376     -1.49150136      0.00000000
    H      4.16586185      1.21191966      0.00000000
    H      4.67424921     -0.26036597      0.87047260
    H      4.67424921     -0.26036597     -0.87047260
$end
   
$rem
mem_static = 200
mem_total  = 7500
exchange = b3lyp
basis = G3Large
max_scf_cycles = 50
scf_convergence = 7
symmetry = false
xc_grid = 000075000302
$end
