$molecule
0    1
    P      0.00000000      0.00000000      0.57564968
    H     -0.59820484      1.03612118     -0.19188323
    H     -0.59820484     -1.03612118     -0.19188323
    H      1.19640969      0.00000000     -0.19188323
$end
   
$rem
mem_static = 200
mem_total  = 7500
exchange = b3lyp
basis = G3Large
max_scf_cycles = 50
scf_convergence = 7
symmetry = false
xc_grid = 000075000302
$end
