$molecule
0    1
    C      2.45740190      0.85677175      0.67414380
    C      1.73396695     -0.47819016      0.48043981
    C      0.59592103     -0.40966516     -0.55012511
    C     -0.67962387      0.28801079     -0.03651015
    C     -1.79242879     -0.75749914     -0.24949214
    O     -2.76777772     -0.65320114      0.78499279
    C     -1.01099385     -2.07658404     -0.24485414
    O      3.14006385      1.26462272     -0.50157512
    O     -0.85425086      1.50125970     -0.74295510
    O      2.72522188     -1.41010509      0.04739084
    O      0.21467106     -1.76357706     -0.90866409
    C     -1.84461979      2.36617964     -0.19671114
    H      3.15689685      0.75289675      1.51668774
    H      1.74356295      1.64956269      0.91732478
    H      1.32385298     -0.79947513      1.45281774
    H      0.95182701      0.07890180     -1.46035905
    H     -0.61758488      0.49355277      1.04536677
    H     -2.24361276     -0.58404615     -1.23585406
    H     -3.53304567     -1.19943411      0.56321181
    H     -1.49313581     -2.88617798     -0.80042010
    H     -0.84336386     -2.40488402      0.79259379
    H      3.66855381      0.50550077     -0.79100510
    H      2.25474891     -2.14937604     -0.36934513
    H     -2.84907272      1.92916667     -0.25509614
    H     -1.62635081      2.60184962      0.85502178
    H     -1.81082779      3.28393957     -0.78702510
$end
   
$rem
mem_static = 200
mem_total  = 7500
exchange = b3lyp
basis = G3Large
max_scf_cycles = 50
scf_convergence = 7
symmetry = false
xc_grid = 000075000302
$end
