$molecule
0    1
    C     -2.58399820     -1.05104873     -0.10093184
    C     -1.29081229     -0.67663076      0.64414111
    C     -0.13436937     -0.36249078     -0.31640682
    C      1.17863253      0.13167718      0.34659713
    C      1.16756853      1.65064807      0.07662715
    O      0.49683558      2.36936402      1.09661207
    C      0.45659858      1.71529307     -1.27590375
    O     -3.22372115      0.11400218     -0.61616280
    O      2.32759445     -0.41409078     -0.29304582
    O     -1.56301227      0.42970516      1.51433304
    O     -0.55008034      0.68249414     -1.22275776
    C      2.66917542     -1.72290068      0.13552914
    H     -2.36826421     -1.77942068     -0.89478278
    H     -3.29708515     -1.50139370      0.59540711
    H     -0.98414731     -1.52225370      1.27416906
    H      0.07977561     -1.26829772     -0.90197078
    H      1.21101553     -0.07303080      1.42504905
    H      2.18831346      2.03557704      0.02407315
    H     -0.27960636      1.85050806      1.38104705
    H     -0.04645738      2.67077500     -1.43976574
    H      1.15330053      1.50861008     -2.09900069
    H     -2.58741520      0.54561815     -1.21330976
    H     -2.34610821      0.87241013      1.14053007
    H      2.85644041     -1.74803268      1.21921307
    H      1.88650048     -2.45737463     -0.10580284
    H      3.58332635     -1.99971666     -0.39348682
$end
   
$rem
mem_static = 200
mem_total  = 7500
exchange = b3lyp
basis = G3Large
max_scf_cycles = 50
scf_convergence = 7
symmetry = false
xc_grid = 000075000302
$end
