$molecule
0    1
    C      0.00000000      0.00000000      3.85751879
    C      0.00000000      0.00000000      2.54712080
    C      0.00000000      0.00000000      1.27693874
    C      0.00000000      0.00000000      0.00000000
    C      0.00000000      0.00000000     -1.27693874
    C      0.00000000      0.00000000     -2.54712080
    C      0.00000000      0.00000000     -3.85751879
    H     -0.65505627      0.65505627      4.42221803
    H      0.65505627     -0.65505627      4.42221803
    H     -0.65505627     -0.65505627     -4.42221803
    H      0.65505627      0.65505627     -4.42221803
$end
   
$rem
mem_static = 200
mem_total  = 7500
exchange = b3lyp
basis = G3Large
max_scf_cycles = 50
scf_convergence = 7
symmetry = false
xc_grid = 000075000302
$end
