$molecule
0    1
    C     -0.78968808      0.78968808     -0.09340252
    C     -0.78968808     -0.78968808      0.09340252
    C      0.78968808     -0.78968808     -0.09340252
    C      0.78968808      0.78968808      0.09340252
    C     -1.60758266      1.60758266      0.91942771
    C     -1.24698410      1.24698410     -1.49106556
    C     -1.24698410     -1.24698410      1.49106556
    C     -1.60758266     -1.60758266     -0.91942771
    C      1.24698410     -1.24698410     -1.49106556
    C      1.60758266     -1.60758266      0.91942771
    C      1.24698410      1.24698410      1.49106556
    C      1.60758266      1.60758266     -0.91942771
    H     -1.36727089      1.36727089      1.95537926
    H     -1.42692729      2.67788025      0.76935426
    H     -2.67788025      1.42692729      0.76935426
    H     -0.73173639      0.73173639     -2.30167386
    H     -2.32046139      1.06760838     -1.60858609
    H     -1.06760838      2.32046139     -1.60858609
    H     -0.73173639     -0.73173639      2.30167386
    H     -2.32046139     -1.06760838      1.60858609
    H     -1.06760838     -2.32046139      1.60858609
    H     -1.36727089     -1.36727089     -1.95537926
    H     -1.42692729     -2.67788025     -0.76935426
    H     -2.67788025     -1.42692729     -0.76935426
    H      0.73173639     -0.73173639     -2.30167386
    H      2.32046139     -1.06760838     -1.60858609
    H      1.06760838     -2.32046139     -1.60858609
    H      1.36727089     -1.36727089      1.95537926
    H      1.42692729     -2.67788025      0.76935426
    H      2.67788025     -1.42692729      0.76935426
    H      0.73173639      0.73173639      2.30167386
    H      2.32046139      1.06760838      1.60858609
    H      1.06760838      2.32046139      1.60858609
    H      1.36727089      1.36727089     -1.95537926
    H      1.42692729      2.67788025     -0.76935426
    H      2.67788025      1.42692729     -0.76935426
$end
   
$rem
mem_static = 200
mem_total  = 7500
exchange = b3lyp
basis = G3Large
max_scf_cycles = 50
scf_convergence = 7
symmetry = false
xc_grid = 000075000302
$end
