$molecule
0    1
    C      0.00000000      0.00000000     -0.67413604
    C      0.00000000      0.00000000      0.67413604
    C      1.25072413     -0.02482231     -1.52978376
    C     -1.25072413      0.02482231     -1.52978376
    C      1.25072413      0.02482231      1.52978376
    C     -1.25072413     -0.02482231      1.52978376
    H      2.17050186     -0.19935915     -0.97230022
    H      1.35617444      0.91899811     -2.08212357
    H      1.16375117     -0.81637338     -2.28567611
    H     -2.17050186      0.19935915     -0.97230022
    H     -1.16375117      0.81637338     -2.28567611
    H     -1.35617444     -0.91899811     -2.08212357
    H      2.17050186      0.19935915      0.97230022
    H      1.35617444     -0.91899811      2.08212357
    H      1.16375117      0.81637338      2.28567611
    H     -2.17050186     -0.19935915      0.97230022
    H     -1.16375117     -0.81637338      2.28567611
    H     -1.35617444      0.91899811      2.08212357
$end
   
$rem
mem_static = 200
mem_total  = 7500
exchange = b3lyp
basis = G3Large
max_scf_cycles = 50
scf_convergence = 7
symmetry = false
xc_grid = 000075000302
$end
