#p b3lyp 6-311+g(3df,2p) scf=tight nosymm

E1

0    1
    C      0.00000000      0.00000000     -0.95122579
    C      0.00000000      0.00000000      0.50451097
    C      0.00000000      0.00000000      1.70543896
    H     -0.51019465     -0.88368305     -1.34212543
    H     -0.51019465      0.88368305     -1.34212543
    H      1.02038929      0.00000000     -1.34212543
    H      0.00000000      0.00000000      2.76765214
 
 
 
