#p b3lyp 6-311+g(3df,2p) scf=tight nosymm

E12

0    1
    C     -0.00618257      0.71925785      0.00000000
    C      1.19598185      0.00417997      0.00000000
    C      1.20274936     -1.38579724      0.00000000
    C      0.00215039     -2.09210084      0.00000000
    C     -1.20032157     -1.39442726      0.00000000
    C     -1.20134940     -0.00153827      0.00000000
    C     -0.00250647      2.22798261      0.00000000
    H      2.13729671      0.54399827      0.00000000
    H      2.14597978     -1.91979095      0.00000000
    H      0.00598305     -3.17555874      0.00000000
    H     -2.14083521     -1.93309497      0.00000000
    H     -2.14526847      0.53277925      0.00000000
    H     -1.01769713      2.62730132      0.00000000
    H      0.51200984      2.62340450      0.88016183
    H      0.51200984      2.62340450     -0.88016183
 
 
 
