#p b3lyp 6-311+g(3df,2p) scf=tight nosymm

E13

0    1
    C      0.00504289     -0.51093708     -1.29794318
    C     -0.01838774     -1.88236241     -1.06950687
    C     -0.01578293     -2.37129465      0.23201237
    C      0.01115542     -1.47597008      1.30059328
    C      0.03219280     -0.10809397      1.07070057
    C      0.02527092      0.40290221     -0.23588786
    C      0.04001993      1.84237058     -0.53628860
    C     -0.04710226      2.85536427      0.32717848
    H      0.00356785     -0.13665360     -2.31591484
    H     -0.03630634     -2.56791259     -1.90849475
    H     -0.03157685     -3.43889899      0.41542406
    H      0.01826803     -1.84889666      2.31813784
    H      0.06074100      0.56935921      1.91516940
    H      0.12412381      2.08013750     -1.59385599
    H     -0.14533234      2.70965543      1.39640352
    H     -0.02589423      3.88123084     -0.01772744
 
 
 
