#p b3lyp 6-311+g(3df,2p) scf=tight nosymm

E21

0    1
    N      0.11964145      1.30318476      0.00000000
    C     -1.21256767      1.34635093      0.00000000
    C     -2.02187633      0.21462725      0.00000000
    C     -1.40222595     -1.02845574      0.00000000
    C     -0.01399653     -1.08509924      0.00000000
    C      0.71950787      0.10412514      0.00000000
    C      2.22407440      0.10727368      0.00000000
    H     -1.65523828      2.33808720      0.00000000
    H     -3.10030215      0.31033765      0.00000000
    H     -1.98887994     -1.93975513      0.00000000
    H      0.49959724     -2.03877926      0.00000000
    H      2.63114668     -0.90452144      0.00000000
    H      2.60055962      0.63631209     -0.87842024
    H      2.60055962      0.63631209      0.87842024
 
 
 
