#p b3lyp 6-311+g(3df,2p) scf=tight nosymm

E25

0    1
    C      0.59464639     -0.26196944      0.00000000
    C     -0.79184347      0.31821191      0.00000000
    O     -1.80909180     -0.32843020      0.00000000
    H      1.14110339      0.09693150     -0.87811212
    H      0.56112704     -1.35052791      0.00000000
    H      1.14110339      0.09693150      0.87811212
    H     -0.83704492      1.42885263      0.00000000
 
 
 
