#p b3lyp 6-311+g(3df,2p) scf=tight nosymm

E26

0    1
    C      0.96297688      0.08020051      0.00000000
    C     -0.53055656      0.25130898      0.00000000
    O     -1.16950405     -0.94846549      0.00000000
    O     -1.12560067      1.29823128      0.00000000
    H     -2.12208764     -0.76329787      0.00000000
    H      1.27222460     -0.48716890     -0.87972382
    H      1.27222460     -0.48716890      0.87972382
    H      1.44032283      1.05636038      0.00000000
 
 
 
