#p b3lyp 6-311+g(3df,2p) scf=tight nosymm

E29

0    1
    O      0.00000000      0.00000000      1.49089050
    C     -1.16802047      0.13486346      0.66626401
    C     -0.73340714     -0.22516106     -0.75581834
    C      0.73340714      0.22516106     -0.75581834
    C      1.16802047     -0.13486346      0.66626401
    H     -1.94898214     -0.52028687      1.05862881
    H     -1.52882605      1.16957386      0.71831640
    H     -1.33838639      0.26863758     -1.51749607
    H     -0.79938574     -1.30461008     -0.91534006
    H      1.33838639     -0.26863758     -1.51749607
    H      0.79938574      1.30461008     -0.91534006
    H      1.52882605     -1.16957386      0.71831640
    H      1.94898214      0.52028687      1.05862881
 
 
 
