#p b3lyp 6-311+g(3df,2p) scf=tight nosymm

E7

0    1
    C     -1.84269642     -0.11821555      0.00000000
    C     -0.60989391      0.39584739      0.00000000
    C      0.60989391     -0.39584739      0.00000000
    C      1.84269642      0.11821555      0.00000000
    H     -2.01011675     -1.19008789      0.00000000
    H     -2.72187999      0.51347958      0.00000000
    H     -0.48338193      1.47603478      0.00000000
    H      0.48338193     -1.47603478      0.00000000
    H      2.01011675      1.19008789      0.00000000
    H      2.72187999     -0.51347958      0.00000000
 
 
 
