#p b3lyp 6-311+g(3df,2p) scf=tight nosymm

P1

0    1
    C      0.00000000      0.00000000      0.00000000
    C      0.00000000      0.00000000     -1.30115726
    C      0.00000000      0.00000000      1.30115726
    H     -0.65550927     -0.65550927     -1.86483273
    H      0.65550927      0.65550927     -1.86483273
    H     -0.65550927      0.65550927      1.86483273
    H      0.65550927     -0.65550927      1.86483273
 
 
 
