#p b3lyp 6-311+g(3df,2p) scf=tight nosymm

P10

0    1
    C      0.00000000     -2.55684792     -0.29950639
    C      0.00000000     -1.28238246      0.54608119
    C      0.00000000      0.00000000     -0.28975185
    C      0.00000000      1.28238246      0.54608119
    C      0.00000000      2.55684792     -0.29950639
    H      0.00000000     -3.45223662      0.32676560
    H     -0.88203972     -2.60330739     -0.94440641
    H      0.88203972     -2.60330739     -0.94440641
    H      0.87542517     -1.28244500      1.20530740
    H     -0.87542517     -1.28244500      1.20530740
    H      0.87592704      0.00000000     -0.95026646
    H     -0.87592704      0.00000000     -0.95026646
    H      0.87542517      1.28244500      1.20530740
    H     -0.87542517      1.28244500      1.20530740
    H      0.88203972      2.60330739     -0.94440641
    H      0.00000000      3.45223662      0.32676560
    H     -0.88203972      2.60330739     -0.94440641
 
 
 
