#p b3lyp 6-311+g(3df,2p) scf=tight nosymm

P14

0    1
    C      0.00000000      0.00000000      0.48302500
    N      0.00000000      0.00000000     -0.93724998
    C      0.00000000      0.00000000     -2.10375588
    H      0.51295537     -0.88846477      0.85266029
    H      0.51295537      0.88846477      0.85266029
    H     -1.02591075      0.00000000      0.85266029
 
 
 
