#p b3lyp 6-311+g(3df,2p) scf=tight nosymm

P2

0    1
    C      0.00000000      0.64395189      0.59988260
    C      0.00000000      0.00000000     -0.76240796
    C      0.00000000     -0.64395189      0.59988260
    H      0.00000000      1.57393048      1.14066420
    H     -0.91187897      0.00000000     -1.35934282
    H      0.91187897      0.00000000     -1.35934282
    H      0.00000000     -1.57393048      1.14066420
 
 
 
