#p b3lyp 6-311+g(3df,2p) scf=tight nosymm

P20

0    1
    C      1.32012978      0.00000000      0.43132427
    C      0.68972315      0.00000000     -0.81206241
    C     -0.68972315      0.00000000     -0.81206241
    C     -1.32012978      0.00000000      0.43132427
    N     -0.66555292      0.00000000      1.59125126
    N      0.66555292      0.00000000      1.59125126
    H     -2.40079655      0.00000000      0.51742413
    H     -1.26747184      0.00000000     -1.72793724
    H      1.26747184      0.00000000     -1.72793724
    H      2.40079655      0.00000000      0.51742413
 
 
 
