#p b3lyp 6-311+g(3df,2p) scf=tight nosymm

P21

0    1
    N     -0.00532105      2.30874737      0.00000000
    C      0.00071784      1.60805630      1.13646090
    C      0.01151912      0.21867305      1.18778048
    C      0.01358399     -0.51353353      0.00000000
    C      0.01151912      0.21867305     -1.18778048
    C      0.00071784      1.60805630     -1.13646090
    C     -0.00738695     -2.01851812      0.00000000
    H     -0.00014135      2.18802112      2.05445088
    H      0.01995672     -0.28505085      2.14781321
    H      0.01995672     -0.28505085     -2.14781321
    H     -0.00014135      2.18802112     -2.05445088
    H      0.48609384     -2.42354508     -0.88499056
    H      0.48609384     -2.42354508      0.88499056
    H     -1.03716833     -2.38900478      0.00000000
 
 
 
