#p b3lyp 6-311+g(3df,2p) scf=tight nosymm

P25

0    1
    C      0.00000000     -0.73287988      0.04993687
    C      0.00000000      0.73287988      0.04993687
    O      0.00000000      0.00000000     -1.17875427
    H     -0.91904523     -1.26905640      0.26972013
    H      0.91904523     -1.26905640      0.26972013
    H     -0.91904523      1.26905640      0.26972013
    H      0.91904523      1.26905640      0.26972013
 
 
 
