#p b3lyp 6-311+g(3df,2p) scf=tight nosymm

P4

0    1
    C      0.00000000     -1.59003453     -0.40317544
    C      0.00000000     -0.66663536      0.77921992
    C      0.00000000      0.66663536      0.77921992
    C      0.00000000      1.59003453     -0.40317544
    H      0.00000000     -1.06180000     -1.35655307
    H     -0.87748685     -2.24459253     -0.38321159
    H      0.87748685     -2.24459253     -0.38321159
    H      0.00000000     -1.16307375      1.74693176
    H      0.00000000      1.16307375      1.74693176
    H      0.00000000      1.06180000     -1.35655307
    H     -0.87748685      2.24459253     -0.38321159
    H      0.87748685      2.24459253     -0.38321159
 
 
 
