#p b3lyp 6-311+g(3df,2p) scf=tight nosymm

P7

0    1
    C      0.00000000      0.66796713     -0.92748464
    C      0.00000000      0.78639832      0.58531623
    C      0.00000000     -0.78639832      0.58531623
    C      0.00000000     -0.66796713     -0.92748464
    H      0.00000000      1.41343334     -1.71367856
    H      0.88815568      1.24476842      1.02792348
    H     -0.88815568      1.24476842      1.02792348
    H     -0.88815568     -1.24476842      1.02792348
    H      0.88815568     -1.24476842      1.02792348
    H      0.00000000     -1.41343334     -1.71367856
 
 
 
