#p b3lyp 6-311+g(3df,2p) scf=tight nosymm

P9

0    1
    C     -0.17104258      2.37095643      0.18902544
    C      0.41810141      1.18055828      0.19742452
    C      0.00000000      0.00000000     -0.64082245
    C     -0.41810141     -1.18055828      0.19742452
    C      0.17104258     -2.37095643      0.18902544
    H     -1.02168318      2.58106871     -0.45160893
    H      0.17595682      3.18115478      0.81920955
    H      1.26514777      1.00944785      0.85796471
    H      0.82855230     -0.30068568     -1.29160406
    H     -0.82855230      0.30068568     -1.29160406
    H     -1.26514777     -1.00944785      0.85796471
    H      1.02168318     -2.58106871     -0.45160893
    H     -0.17595682     -3.18115478      0.81920955
 
 
 
