$molecule
1    1
    C      1.21158637      0.69950972     -0.20294687
    C      1.21158637     -0.69950972     -0.20294687
    C      0.00000000     -1.39901943     -0.20294687
    C     -1.21158637     -0.69950972     -0.20294687
    C     -1.21158637      0.69950972     -0.20294687
    C      0.00000000      1.39901943     -0.20294687
    H      2.14791737      1.24010067     -0.24361532
    H      2.14791737     -1.24010067     -0.24361532
    H      0.00000000     -2.48020134     -0.24361532
    H     -2.14791737     -1.24010067     -0.24361532
    H     -2.14791737      1.24010067     -0.24361532
    H      0.00000000      2.48020134     -0.24361532
    K      0.00000000      0.00000000      2.67937314
$end
   
$rem
mem_static = 200
mem_total  = 7500
exchange = b3lyp
basis = G3Large
max_scf_cycles = 50
scf_convergence = 7
symmetry = false
xc_grid = 000075000302
$end
