$molecule
1    1
    C      1.21471200      0.70131430     -0.13866462
    C      1.21471200     -0.70131430     -0.13866462
    C      0.00000000     -1.40262860     -0.13866462
    C     -1.21471200     -0.70131430     -0.13866462
    C     -1.21471200      0.70131430     -0.13866462
    C      0.00000000      1.40262860     -0.13866462
    H      2.15103298      1.24189947     -0.14922002
    H      2.15103298     -1.24189947     -0.14922002
    H      0.00000000     -2.48379894     -0.14922002
    H     -2.15103298     -1.24189947     -0.14922002
    H     -2.15103298      1.24189947     -0.14922002
    H      0.00000000      2.48379894     -0.14922002
   Li      0.00000000      0.00000000      1.72730783
$end
   
$rem
mem_static = 200
mem_total  = 7500
exchange = b3lyp
basis = G3Large
max_scf_cycles = 50
scf_convergence = 7
symmetry = false
xc_grid = 000075000302
$end
