$molecule
0    1
   Li      1.71483587     -1.71483587      1.71483587
   Li     -1.71483587      1.71483587      1.71483587
   Li      1.71483587      1.71483587     -1.71483587
   Li     -1.71483587     -1.71483587     -1.71483587
   Li      0.99434597      0.99434597      0.99434597
   Li     -0.99434597      0.99434597     -0.99434597
   Li     -0.99434597     -0.99434597      0.99434597
   Li      0.99434597     -0.99434597     -0.99434597
$end
   
$rem
mem_static = 200
mem_total  = 7500
exchange = b3lyp
basis = G3Large
max_scf_cycles = 50
scf_convergence = 7
symmetry = false
xc_grid = 000075000302
$end
