$molecule
0    1
   Na      1.98266742     -1.98266742      1.98266742
   Na     -1.98266742      1.98266742      1.98266742
   Na      1.98266742      1.98266742     -1.98266742
   Na     -1.98266742     -1.98266742     -1.98266742
   Na      1.23020886      1.23020886      1.23020886
   Na     -1.23020886      1.23020886     -1.23020886
   Na     -1.23020886     -1.23020886      1.23020886
   Na      1.23020886     -1.23020886     -1.23020886
$end
   
$rem
mem_static = 200
mem_total  = 7500
exchange = b3lyp
basis = G3Large
max_scf_cycles = 50
scf_convergence = 7
symmetry = false
xc_grid = 000075000302
$end
